BEGIN IONS
NAME=HMDB0004825_350.20743_12.3
SMILES=C[C@H]1NC(=O)N[C@H]1CCCCCC(=O)NC[C@H](O)c1ccc(O)cc1
MSLEVEL=MS2
INSTRUMENT_TYPE=Orbitrap
SOURCE_INSTRUMENT=
IONMODE=Positive
COLLISION_ENERGY=
FORMULA=C18H27N3O4
EXACTMASS=349.20016
PEPMASS=350.20743
ADDUCT=M+H
RTINSECONDS=12.3
67.0544	537755.3
69.0700	565857.8
70.0653	181162.1
79.0545	191359.3
81.0701	337308.9
84.0810	86472.2
91.0544	1475642.3
93.0701	397936.4
94.0654	105284.6
95.0858	873181.1
96.0447	160083.1
99.0555	822864.6
107.0494	111360.9
108.0810	116221.1
109.1014	1298683.8
110.0967	214302.4
111.0555	683299.9
111.1171	129386.9
112.1124	75134.1
119.0494	1359055.0
119.0858	324868.3
121.0651	106671.0
125.0713	118911.3
126.1280	282610.1
134.0968	175734.8
136.0759	13625178.0
136.1122	1578044.5
137.0713	183679.5
137.0964	430762.3
151.0869	129544.3
151.1233	348092.5
152.1073	184526.5
153.1026	296077.6
154.1229	1188220.9
162.0916	71887.5
167.1182	176499.2
169.1339	218035.0
173.0600	150575.0
179.1181	8662806.0
180.1022	92908.1
196.1450	94018.0
197.1284	41962932.0
215.1393	79575.2
254.1545	318050.9
272.1653	90860.7
287.1762	130832.0
297.1606	177011.9
314.1868	1817125.1
315.1710	1578283.6
332.1969	31235418.0
END IONS

BEGIN IONS
NAME=HMDB0001310_286.17613_12.16
SMILES=C[C@@H](NC(=O)CCCCC[C@@H]1NC(=O)N[C@@H]1C)C(=O)O
MSLEVEL=MS2
INSTRUMENT_TYPE=Orbitrap
SOURCE_INSTRUMENT=
IONMODE=Positive
COLLISION_ENERGY=
FORMULA=C13H23N3O4
EXACTMASS=285.16886
PEPMASS=286.17613
ADDUCT=M+H
RTINSECONDS=12.16
67.0541	917022.8
69.0697	1432769.4
81.0698	582106.8
90.0548	628273.9
95.0854	1205104.3
99.0551	1276881.6
109.1009	2062766.6
111.0551	993378.7
136.1117	2273862.5
137.0958	733508.6
151.1225	512572.2
154.1222	1652753.8
179.1174	11898796.0
196.1439	647439.9
197.1278	73197192.0
215.1385	9725723.0
223.1435	580029.4
240.1699	28917718.0
268.1649	5917023.0
286.1753	27598498.0
END IONS

BEGIN IONS
NAME=HMDB0000078_375.16967_12.39
SMILES=C[C@H]1NC(=O)N[C@H]1CCCCCC(=O)N[C@@H](CS)C(=O)NCC(=O)O
MSLEVEL=MS2
INSTRUMENT_TYPE=Orbitrap
SOURCE_INSTRUMENT=
IONMODE=Positive
COLLISION_ENERGY=
FORMULA=C15H26N4O5S
EXACTMASS=374.16239
PEPMASS=375.16967
ADDUCT=M+H
RTINSECONDS=12.39
95.0856	9917459.0
99.0553	10098417.0
109.1013	11096362.0
136.1122	18067098.0
153.1023	10985460.0
153.1387	8771211.0
154.1227	9987155.0
167.1179	10813453.0
179.1180	94213768.0
194.1000	17112346.0
196.1446	48278276.0
197.1285	284336736.0
213.1058	9628734.0
254.1323	59262836.0
266.1501	10294125.0
272.1429	38225676.0
282.1273	9127807.0
300.1376	360355968.0
357.1593	52054072.0
375.1700	241350432.0
END IONS

BEGIN IONS
NAME=HMDB0000742_332.16385_13.64
SMILES=C[C@H]1NC(=O)N[C@H]1CCCCCC(=O)N[C@@H](CCS)C(=O)O
MSLEVEL=MS2
INSTRUMENT_TYPE=Orbitrap
SOURCE_INSTRUMENT=
IONMODE=Positive
COLLISION_ENERGY=
FORMULA=C14H25N3O4S
EXACTMASS=331.15658
PEPMASS=332.16385
ADDUCT=M+H
RTINSECONDS=13.64
67.0541	23283.2
69.0697	27846.9
90.0370	47060.4
95.0853	29717.6
99.0551	31609.0
109.1010	50881.0
111.0550	26607.8
115.0387	24372.6
136.0424	30143.4
136.0754	40566.6
136.1118	61837.1
154.1223	44348.1
179.1174	329295.7
197.1278	1665398.8
215.1385	172611.2
252.1701	79055.1
296.1420	23818.7
314.1523	561598.3
332.1628	501317.4
332.1960	88258.4
END IONS

BEGIN IONS
NAME=HMDB0000159_362.20743_15.59
SMILES=C[C@H]1NC(=O)N[C@H]1CCCCCC(=O)N[C@@H](Cc1ccccc1)C(=O)O
MSLEVEL=MS2
INSTRUMENT_TYPE=Orbitrap
SOURCE_INSTRUMENT=
IONMODE=Positive
COLLISION_ENERGY=
FORMULA=C19H27N3O4
EXACTMASS=361.20016
PEPMASS=362.20743
ADDUCT=M+H
RTINSECONDS=15.59
67.0546	5831888.0
69.0703	3909120.5
93.0704	5548215.0
95.0861	8629317.0
99.0559	8428118.0
103.0548	6546894.5
109.1018	13075003.0
111.0559	6862793.5
120.0812	164423936.0
136.1129	15302715.0
137.0969	4342535.5
154.1235	11025097.0
166.0871	33682012.0
179.1187	67099900.0
197.1289	305021376.0
215.1400	38712188.0
299.1772	3894469.3
316.2029	110855128.0
344.1990	5905817.5
362.2092	40913220.0
END IONS

BEGIN IONS
NAME=HMDB0000172_328.22308_15.24
SMILES=CC[C@H](C)[C@H](NC(=O)CCCCC[C@@H]1NC(=O)N[C@@H]1C)C(=O)O
MSLEVEL=MS2
INSTRUMENT_TYPE=Orbitrap
SOURCE_INSTRUMENT=
IONMODE=Positive
COLLISION_ENERGY=
FORMULA=C16H29N3O4
EXACTMASS=327.21581
PEPMASS=328.22308
ADDUCT=M+H
RTINSECONDS=15.24
67.0545	1367740.9
69.0702	3517286.5
86.0967	31891852.0
93.0703	946159.2
95.0860	1965548.4
99.0557	2025326.1
109.1017	2997111.3
111.0558	1447312.3
132.1025	3078567.8
136.1127	3312655.5
154.1233	2323495.8
179.1185	13495954.0
196.1453	1279577.8
197.1287	55436144.0
214.1559	2250494.8
215.1397	9845839.0
264.2082	3067986.0
282.2180	30062212.0
310.2140	1022584.2
328.2244	5895296.5
END IONS

BEGIN IONS
NAME=HMDB0000870_308.2081_8.44
SMILES=C[C@H]1NC(=O)N[C@H]1CCCCCC(=O)NCCc1c[nH]cn1
MSLEVEL=MS2
INSTRUMENT_TYPE=Orbitrap
SOURCE_INSTRUMENT=
IONMODE=Positive
COLLISION_ENERGY=
FORMULA=C15H25N5O2
EXACTMASS=307.20083
PEPMASS=308.2081
ADDUCT=M+H
RTINSECONDS=8.44
68.0494	772733.3
69.0698	148412.3
83.0603	699605.8
95.0602	23238700.0
95.0854	194057.3
99.0551	129029.5
109.1010	242784.8
112.0867	16117334.0
134.0962	248971.7
136.1119	451202.3
153.1384	351742.6
154.1224	191097.3
179.1176	1474268.1
196.1441	6431809.0
197.1281	2678766.5
248.1752	214415.1
273.1704	344758.6
290.1894	121811.3
290.1970	5743656.0
308.2072	80688976.0
END IONS

BEGIN IONS
NAME=HMDB0000696_346.1795_14.15
SMILES=CSCC[C@H](NC(=O)CCCCC[C@@H]1NC(=O)N[C@@H]1C)C(=O)O
MSLEVEL=MS2
INSTRUMENT_TYPE=Orbitrap
SOURCE_INSTRUMENT=
IONMODE=Positive
COLLISION_ENERGY=
FORMULA=C15H27N3O4S
EXACTMASS=345.17223
PEPMASS=346.1795
ADDUCT=M+H
RTINSECONDS=14.15
56.0493	7374633.0
95.0853	4866583.0
99.0551	4352489.0
104.0526	14876646.0
109.1010	6766080.5
133.0314	7084237.0
136.1117	6706360.5
150.0580	21265392.0
154.1223	6078993.5
179.1174	41635044.0
197.1279	217654368.0
198.1312	9283562.0
199.1348	6384580.0
215.1385	32896318.0
230.1495	3857446.3
232.1545	3806635.8
252.1699	148353600.0
300.1734	16289692.0
328.1681	11542556.0
346.1783	101577384.0
END IONS

BEGIN IONS
NAME=HMDB0000929_401.21833_15.57
SMILES=C[C@H]1NC(=O)N[C@H]1CCCCCC(=O)N[C@@H](Cc1c[nH]c2ccccc12)C(=O)O
MSLEVEL=MS2
INSTRUMENT_TYPE=Orbitrap
SOURCE_INSTRUMENT=
IONMODE=Positive
COLLISION_ENERGY=
FORMULA=C21H28N4O4
EXACTMASS=400.21106
PEPMASS=401.21833
ADDUCT=M+H
RTINSECONDS=15.57
74.0963	16788.5
89.0595	10823.1
109.1010	6687.5
132.0805	15130.7
133.0856	5522.9
144.0804	5462.0
146.0598	13074.9
159.0913	111378.3
179.1175	29313.5
188.0702	55989.8
197.1280	127000.7
198.1313	4712.9
205.0967	26408.5
215.1385	16192.8
277.1696	5419.5
337.2017	40649.9
355.2121	131540.8
383.2070	74671.7
384.2666	8450.9
401.2174	99282.3
END IONS

BEGIN IONS
NAME=HMDB0000073_350.20743_13.24
SMILES=C[C@H]1NC(=O)N[C@H]1CCCCCC(=O)NCCc1ccc(O)c(O)c1
MSLEVEL=MS2
INSTRUMENT_TYPE=Orbitrap
SOURCE_INSTRUMENT=
IONMODE=Positive
COLLISION_ENERGY=
FORMULA=C18H27N3O4
EXACTMASS=349.20016
PEPMASS=350.20743
ADDUCT=M+H
RTINSECONDS=13.24
67.0543	8271643.0
69.0699	7785114.5
91.0543	28841800.0
95.0856	12832583.0
99.0554	9403218.0
109.1012	19188862.0
111.0554	8883595.0
119.0492	15072063.0
136.1122	22393428.0
137.0597	297091840.0
153.1387	7723105.5
154.0863	53544288.0
154.1227	14898005.0
179.1179	102525168.0
196.1444	150251104.0
197.1283	308647616.0
214.1551	6782979.0
290.1753	8114096.5
332.1969	45861764.0
350.2068	632716352.0
END IONS

BEGIN IONS
NAME=HMDB0000939_581.25004_10.44
SMILES=C[C@H]1NC(=O)N[C@H]1CCCCCC(=O)N[C@@H](CCSC[C@H]1O[C@@H](n2cnc3c(N)ncnc32)[C@H](O)[C@@H]1O)C(=O)O
MSLEVEL=MS2
INSTRUMENT_TYPE=Orbitrap
SOURCE_INSTRUMENT=
IONMODE=Positive
COLLISION_ENERGY=
FORMULA=C24H36N8O7S
EXACTMASS=580.24277
PEPMASS=581.25004
ADDUCT=M+H
RTINSECONDS=10.44
97.0287	3419692.3
134.0275	1161924.5
136.0622	6020330.0
179.1184	2010355.1
186.0590	409387.4
197.1287	20637562.0
215.1397	1788164.1
232.0645	971107.1
250.0752	832309.4
252.1713	4551467.5
293.1505	876451.3
298.1769	1390292.4
314.1540	4444917.5
332.1646	2679694.5
382.1809	489842.7
410.1757	1412201.6
428.1853	16750976.0
446.1962	3982649.3
581.2260	395871.5
581.2507	9741492.0
END IONS

BEGIN IONS
NAME=HMDB0001861_322.22375_8.61
SMILES=C[C@H]1NC(=O)N[C@H]1CCCCCC(=O)NCCc1cncn1C
MSLEVEL=MS2
INSTRUMENT_TYPE=Orbitrap
SOURCE_INSTRUMENT=
IONMODE=Positive
COLLISION_ENERGY=
FORMULA=C16H27N5O2
EXACTMASS=321.21648
PEPMASS=322.22375
ADDUCT=M+H
RTINSECONDS=8.61
68.0494	4256.4
69.0698	1330.3
75.0260	2658.3
82.0650	1650.5
92.7727	1235.6
95.0603	3482.1
95.0854	1481.0
96.0680	2043.7
97.0759	4122.7
109.0758	209099.9
109.1010	2710.9
112.0866	2333.5
120.0806	1564.4
124.0867	1481.6
126.1023	135598.7
136.1118	2337.1
141.1896	1446.8
149.0231	1934.3
154.1224	1415.1
168.1382	1493.0
179.1174	8889.3
181.6914	1471.7
182.9468	1331.1
197.1281	15262.9
211.1434	1417.9
214.4844	1545.6
236.1754	3126.9
239.9798	2094.2
240.9642	9021.1
242.9434	2912.9
262.1909	41328.1
265.9594	3055.6
279.2173	20058.2
280.9826	2271.5
282.9204	1575.4
283.9698	1558.3
287.1860	1850.2
288.9748	1836.1
289.9493	1426.1
298.9513	2701.5
299.0606	1428.9
300.9303	4691.2
304.2129	3618.0
305.1971	5546.9
305.9803	4082.3
306.9499	1773.4
311.1076	1321.3
322.2227	1309728.5
322.9684	7491.8
324.9481	1569.8
END IONS

BEGIN IONS
NAME=HMDB0000732_421.20816_13.4
SMILES=C[C@H]1NC(=O)N[C@H]1CCCCCC(=O)NC(CC(=O)c1cccc(O)c1N)C(=O)O
MSLEVEL=MS2
INSTRUMENT_TYPE=Orbitrap
SOURCE_INSTRUMENT=
IONMODE=Positive
COLLISION_ENERGY=
FORMULA=C20H28N4O6
EXACTMASS=420.20088
PEPMASS=421.20816
ADDUCT=M+H
RTINSECONDS=13.4
67.0541	25694.4
69.0698	24864.2
81.0698	15133.0
93.0698	18335.2
95.0855	43145.6
99.0076	13067.9
99.0552	41514.9
108.0443	15195.0
109.1011	68946.4
110.0599	220571.6
111.0552	27831.4
119.0854	18317.7
120.0443	19477.3
126.1276	13482.8
134.0598	22297.0
136.0392	628989.0
136.1119	75887.6
137.0960	29111.6
151.1229	15586.7
152.0704	53768.7
153.1022	15758.9
154.1225	81974.4
162.0547	1819178.8
164.0680	20165.6
166.0497	83522.7
172.0390	19560.0
179.0813	601461.0
179.1176	519694.5
180.0653	26938.2
189.0656	52241.2
190.0496	604670.0
196.1443	93716.7
197.1281	3419927.0
207.0762	51461.3
208.0601	486186.1
214.1546	2042678.8
215.1388	76380.0
223.1438	23200.1
225.0866	453208.4
240.1704	310768.2
266.1498	61497.4
306.1530	13983.7
312.1549	549460.3
330.1809	40211.1
368.1601	33017.9
385.1869	54349.3
386.1703	22551.3
403.1966	1640441.8
404.1818	22820.4
421.2071	3009829.0
END IONS

BEGIN IONS
NAME=HMDB0000450_359.2289_8.5
SMILES=C[C@H]1NC(=O)N[C@H]1CCCCCC(=O)N[C@@H](CC[C@@H](O)CN)C(=O)O
MSLEVEL=MS2
INSTRUMENT_TYPE=Orbitrap
SOURCE_INSTRUMENT=
IONMODE=Positive
COLLISION_ENERGY=
FORMULA=C16H30N4O5
EXACTMASS=358.22162
PEPMASS=359.2289
ADDUCT=M+H
RTINSECONDS=8.5
55.0546	233765.4
56.0498	212733.6
67.0546	167479.9
69.0703	147096.5
70.0656	82721.7
80.0500	91081.0
81.0704	83572.2
82.0656	2710706.3
84.0813	148541.8
93.0705	123741.0
95.0861	237837.7
99.0559	248686.2
99.0923	455098.9
100.0762	4999105.5
109.1018	386694.8
110.0607	188690.8
110.0971	67565.4
111.0560	223473.5
117.1029	118010.8
119.0863	100723.0
126.1285	75682.6
127.0874	487532.6
128.0712	10647086.0
134.0972	68499.7
136.1129	499712.5
137.0718	64880.7
137.0969	148124.8
145.0979	5546863.5
146.0821	162086.9
151.1239	109360.4
153.1032	66634.5
154.1235	433245.6
163.1086	1066741.3
169.1346	65567.6
179.1188	2762654.0
181.1346	303210.1
196.1456	367224.7
197.1292	11732091.0
214.1562	714933.4
215.1403	423622.3
277.2040	252873.8
278.1880	277413.8
295.2146	1062887.0
296.1987	250052.2
305.1990	58466.3
306.1834	67056.6
323.2098	819056.8
324.1938	435578.9
341.2194	6673934.0
359.2299	13914701.0
END IONS

BEGIN IONS
NAME=HMDB0000450_359.2289_9.4
SMILES=C[C@H]1NC(=O)N[C@H]1CCCCCC(=O)NC[C@H](O)CC[C@H](N)C(=O)O
MSLEVEL=MS2
INSTRUMENT_TYPE=Orbitrap
SOURCE_INSTRUMENT=
IONMODE=Positive
COLLISION_ENERGY=
FORMULA=C16H30N4O5
EXACTMASS=358.22162
PEPMASS=359.2289
ADDUCT=M+H
RTINSECONDS=9.4
55.0543	576709.6
56.0496	297348.1
67.0417	271482.7
67.0543	426583.7
69.0700	369885.6
74.0238	611295.1
80.0496	565534.7
81.0700	221741.1
82.0652	16897742.0
83.0493	211870.1
84.0809	475170.5
93.0700	300844.4
95.0856	530060.1
99.0554	350773.7
99.0918	7276639.0
100.0758	10065953.0
109.1013	758173.2
111.0555	350026.3
113.0710	196683.8
119.0855	189853.2
127.0867	517551.9
128.0707	17389402.0
136.1122	1015907.9
137.0963	325717.9
145.0972	10256322.0
146.0812	542886.4
151.1232	258664.9
153.1389	187859.2
154.1227	1017518.4
163.1077	210598.2
179.1180	6675298.0
181.1337	202016.9
196.1446	1456905.1
197.1285	41176752.0
214.1551	1765730.6
215.1392	413548.9
235.1808	206603.4
268.2024	196032.4
277.2025	9213157.0
278.1866	3653455.3
295.2128	43794264.0
296.1968	44997936.0
305.1974	226805.0
306.1813	179969.8
313.2233	196082.1
323.2081	6877198.0
324.1920	3647713.0
341.2181	86060456.0
342.2031	1011907.8
359.2287	71856056.0
END IONS

BEGIN IONS
NAME=HMDB0000904_372.22415_10.98
SMILES=C[C@H]1NC(=O)N[C@H]1CCCCCC(=O)N[C@@H](CCCNC(N)=O)C(=O)O
MSLEVEL=MS2
INSTRUMENT_TYPE=Orbitrap
SOURCE_INSTRUMENT=
IONMODE=Positive
COLLISION_ENERGY=
FORMULA=C16H29N5O5
EXACTMASS=371.21687
PEPMASS=372.22415
ADDUCT=M+H
RTINSECONDS=10.98
70.0655	10425290.0
109.1018	924495.1
113.0715	3144710.3
115.0871	10958707.0
136.1128	1360788.8
153.1395	852578.3
154.1235	998924.9
159.0773	1309958.9
179.1187	6357595.0
181.1345	940011.3
196.1453	11406685.0
197.1290	30544512.0
215.1400	3166533.8
293.1989	1083381.0
309.1940	637919.5
311.2087	13731251.0
329.2202	1803520.8
337.1890	826223.6
355.1984	13487043.0
372.2262	2515034.8
END IONS

BEGIN IONS
NAME=HMDB0028854_371.2289_13.08
SMILES=CC(C)[C@H](NC(=O)CNC(=O)CCCCC[C@@H]1NC(=O)N[C@@H]1C)C(=O)O
MSLEVEL=MS2
INSTRUMENT_TYPE=Orbitrap
SOURCE_INSTRUMENT=
IONMODE=Positive
COLLISION_ENERGY=
FORMULA=C17H30N4O5
EXACTMASS=370.22162
PEPMASS=371.2289
ADDUCT=M+H
RTINSECONDS=13.08
72.0807	456401.8
73.0467	222891.4
113.0707	1462810.4
118.0860	125643.2
129.1020	255926.3
136.1118	79050.8
175.1073	96949.3
179.1175	561787.9
197.1280	4482795.5
209.1280	150082.3
215.1386	158305.9
226.1545	2682133.5
254.1494	4424168.0
268.9778	96683.0
272.1599	703967.7
285.0091	183817.0
325.2227	1963062.6
353.2177	375230.7
355.0692	335044.8
371.2282	3569650.0
END IONS

BEGIN IONS
NAME=HMDB0004195_451.18571_16.8
SMILES=C[C@H]1NC(=O)N[C@H]1CCCCCC(=O)N[C@@H](CCC(=O)NCCS(=O)(=O)O)C(=O)O
MSLEVEL=MS2
INSTRUMENT_TYPE=Orbitrap
SOURCE_INSTRUMENT=
IONMODE=Positive
COLLISION_ENERGY=
FORMULA=C17H30N4O8S
EXACTMASS=450.17843
PEPMASS=451.18571
ADDUCT=M+H
RTINSECONDS=16.8
67.0541	15632.9
69.0698	20612.6
79.0541	8837.7
81.0698	12591.4
84.0443	71378.2
93.0697	11844.4
95.0854	23284.0
96.0443	7079.8
99.0551	34016.1
102.0548	10180.8
108.0113	24127.3
109.1010	49317.5
111.0551	19403.1
119.0854	16587.3
126.0217	515588.8
126.1275	7397.4
130.0497	197241.8
135.0946	6852.7
136.1118	60927.7
137.0707	10632.6
137.0959	18069.7
151.0864	8400.7
151.1228	12819.3
153.1019	11024.1
154.1224	69216.8
164.0330	7622.5
164.0373	137279.2
169.1331	10696.7
179.1175	436123.3
180.1015	8226.0
191.0482	30744.2
192.0320	1029581.8
196.1440	12362.4
197.1279	3770385.0
209.0587	7612.7
214.1545	2921239.0
215.1386	385810.2
237.0535	272248.4
238.0375	340603.0
252.1702	27397.7
255.0639	1808671.5
263.1385	10943.8
280.1650	95632.6
298.1757	236311.5
308.1594	10630.8
322.1425	31685.9
326.1702	1361022.0
415.1634	9770.7
433.1743	687387.4
451.1841	3346291.0
END IONS

BEGIN IONS
NAME=HMDB0000641_343.1976_10.86
SMILES=C[C@H]1NC(=O)N[C@H]1CCCCCC(=O)N[C@@H](CCC(N)=O)C(=O)O
MSLEVEL=MS2
INSTRUMENT_TYPE=Orbitrap
SOURCE_INSTRUMENT=
IONMODE=Positive
COLLISION_ENERGY=
FORMULA=C15H26N4O5
EXACTMASS=342.19032
PEPMASS=343.1976
ADDUCT=M+H
RTINSECONDS=10.86
83.0607	7633283.5
84.0447	33905872.0
99.0557	4174723.0
101.0713	16174788.0
109.1016	6842979.5
129.0663	29027918.0
130.0503	48012568.0
136.1126	8491487.0
147.0769	68897144.0
154.1232	6840866.5
179.1185	47727716.0
197.1288	291913280.0
214.1556	86236840.0
215.1398	9127164.0
280.1667	13679265.0
297.1933	9566074.0
298.1772	21579374.0
325.1879	43746836.0
326.1719	46400408.0
343.1983	84775072.0
END IONS

BEGIN IONS
NAME=HMDB0000684_405.21325_14.91
SMILES=C[C@H]1NC(=O)N[C@H]1CCCCCC(=O)N[C@@H](CC(=O)c1ccccc1N)C(=O)O
MSLEVEL=MS2
INSTRUMENT_TYPE=Orbitrap
SOURCE_INSTRUMENT=
IONMODE=Positive
COLLISION_ENERGY=
FORMULA=C20H28N4O5
EXACTMASS=404.20597
PEPMASS=405.21325
ADDUCT=M+H
RTINSECONDS=14.91
94.0649	1789023.0
109.1010	574967.2
120.0441	5155001.0
136.0754	545113.9
136.1118	709185.6
146.0597	15696431.0
150.0546	517508.1
163.0862	4794468.0
174.0545	4680263.5
179.1174	3777446.3
192.0651	3337624.3
196.1440	838825.4
197.1279	26011514.0
209.0916	4091468.3
214.1544	16575053.0
215.1385	772853.7
240.1702	1761761.9
312.1547	2451746.8
387.2017	10621013.0
405.2122	13621487.0
END IONS

BEGIN IONS
NAME=HMDB0000687_328.22308_15.41
SMILES=CC(C)C[C@H](NC(=O)CCCCC[C@@H]1NC(=O)N[C@@H]1C)C(=O)O
MSLEVEL=MS2
INSTRUMENT_TYPE=Orbitrap
SOURCE_INSTRUMENT=
IONMODE=Positive
COLLISION_ENERGY=
FORMULA=C16H29N3O4
EXACTMASS=327.21581
PEPMASS=328.22308
ADDUCT=M+H
RTINSECONDS=15.41
67.0543	4489833.0
69.0700	5400314.0
86.0965	73617096.0
95.0857	8468315.0
99.0554	7842742.5
109.1013	11886893.0
111.0554	6162021.0
132.1021	11269792.0
136.1122	15255785.0
137.0963	4280561.5
154.1228	11439413.0
179.1180	82434296.0
196.1447	3860288.3
197.1284	400138240.0
215.1391	69842624.0
264.2074	5627431.5
265.1914	5753667.5
282.2176	333308832.0
310.2128	38756416.0
328.2231	163593776.0
END IONS

BEGIN IONS
NAME=HMDB0029430_377.18532_10.3
SMILES=C[C@H]1NC(=O)N[C@H]1CCCCCC(=O)NC(CCS(C)(=N)=O)C(=O)O
MSLEVEL=MS2
INSTRUMENT_TYPE=Orbitrap
SOURCE_INSTRUMENT=
IONMODE=Positive
COLLISION_ENERGY=
FORMULA=C15H28N4O5S
EXACTMASS=376.17804
PEPMASS=377.18532
ADDUCT=M+H
RTINSECONDS=10.3
56.0497	68120.2
67.0545	82355.9
69.0702	84494.6
70.0655	26028.0
74.0604	92354.7
79.0546	26918.0
80.0168	35507.9
81.0703	47276.1
91.0546	26504.6
93.0703	63639.7
95.0859	144609.3
96.0448	27788.6
99.0557	139048.3
102.0554	315879.8
109.1016	255585.3
110.0969	34415.8
111.0557	109630.0
111.1173	25477.5
113.0714	21114.7
119.0860	66402.4
126.1283	46895.8
134.0970	36730.2
136.1126	296434.3
137.0716	34019.7
137.0967	117180.8
151.0873	24155.4
151.1236	62402.3
152.1076	38057.0
153.1029	56697.0
153.1393	36094.4
154.1232	292459.7
163.0542	142288.2
169.1343	43370.4
179.1185	1859012.3
180.1026	26680.4
181.0648	296826.2
181.1342	33506.6
196.1452	370142.7
197.1287	11631732.0
214.1558	201098.1
215.1399	119632.5
238.1448	35440.0
240.1717	50320.3
252.1715	580149.7
262.0798	23479.3
276.1389	186118.5
280.1669	161314.5
298.1765	9217672.0
359.1762	349726.9
377.1864	1320016.4
END IONS

BEGIN IONS
NAME=HMDB0094692_300.19178_13.4
SMILES=C[C@H]1NC(=O)N[C@H]1CCCCCC(=O)N(C)[C@@H](C)C(=O)O
MSLEVEL=MS2
INSTRUMENT_TYPE=Orbitrap
SOURCE_INSTRUMENT=
IONMODE=Positive
COLLISION_ENERGY=
FORMULA=C14H25N3O4
EXACTMASS=299.18451
PEPMASS=300.19178
ADDUCT=M+H
RTINSECONDS=13.4
56.0497	76341.6
58.0653	7113967.0
67.0545	173492.7
69.0702	185685.2
70.0655	56572.7
79.0546	56875.7
81.0702	96456.0
84.0811	29996.3
91.0546	45647.9
93.0703	117233.5
94.0655	31402.0
95.0859	255099.8
96.0448	56356.3
98.0968	19403.7
99.0557	262494.8
100.0761	22282.5
104.0709	9747133.0
108.0812	36441.6
109.1016	403927.6
110.0969	75971.4
111.0557	191182.2
111.1172	32725.4
112.1125	23381.8
113.0714	22165.1
119.0860	99964.6
125.0715	33886.8
126.1282	88484.3
127.0871	26837.0
134.0970	46018.4
136.1126	463605.7
137.0715	54447.6
137.0967	116531.4
151.0872	38694.9
151.1236	105330.9
152.1076	47726.1
153.1028	59013.0
154.1232	331454.8
162.0921	23252.9
169.0614	108147.8
169.1342	58081.7
179.1184	2277287.8
180.1024	24983.2
181.1342	25418.2
197.1288	13842238.0
215.1396	1576853.4
223.1445	24662.6
254.1869	4696409.0
268.1667	89874.5
282.1818	5889847.5
300.1927	2081622.4
END IONS

BEGIN IONS
NAME=HMDB0001434_408.21291_14
SMILES=COc1cc(CC(NC(=O)CCCCC[C@@H]2NC(=O)N[C@@H]2C)C(=O)O)ccc1O
MSLEVEL=MS2
INSTRUMENT_TYPE=Orbitrap
SOURCE_INSTRUMENT=
IONMODE=Positive
COLLISION_ENERGY=
FORMULA=C20H29N3O6
EXACTMASS=407.20564
PEPMASS=408.21291
ADDUCT=M+H
RTINSECONDS=14.0
67.0542	5369.0
69.0699	4448.9
95.0855	8267.2
99.0553	7387.0
109.1012	12139.8
111.0553	5705.8
113.0710	49419.6
121.0285	4785.4
134.0601	10440.9
136.1121	13524.4
137.0962	4172.9
149.0234	3914.3
152.0706	3693.5
154.1226	13818.7
162.0550	16032.6
165.0546	3457.3
165.1022	3585.3
166.0863	17597.0
179.1179	77055.1
180.0655	29976.1
180.1018	22739.2
181.0495	17241.6
194.0811	123554.4
197.1283	453677.3
208.0944	37399.9
210.1601	30092.8
212.0917	34800.0
228.1706	141246.7
234.0737	26348.4
236.1368	5280.0
237.1210	5616.5
240.1706	64768.1
260.0664	10239.4
279.0952	25084.3
279.1317	4790.3
292.1291	5623.6
293.1329	16725.3
305.1222	13762.0
335.1603	8124.7
337.1370	36210.2
347.1608	6006.0
362.2072	6043.5
363.1162	11219.1
376.1867	26312.3
390.2024	98829.6
391.0887	29577.6
408.1148	6367.6
408.1378	20679.2
408.1849	8076.1
408.2127	257304.1
END IONS

BEGIN IONS
NAME=HMDB0246561_326.17105_10.8
SMILES=C[C@H]1NC(=O)N[C@H]1CCCCCC(=O)N1CC(=O)CC1C(=O)O
MSLEVEL=MS2
INSTRUMENT_TYPE=Orbitrap
SOURCE_INSTRUMENT=
IONMODE=Positive
COLLISION_ENERGY=
FORMULA=C15H23N3O5
EXACTMASS=325.16377
PEPMASS=326.17105
ADDUCT=M+H
RTINSECONDS=10.8
67.0544	83293.0
69.0700	104176.4
70.0653	28817.6
79.0544	28601.9
81.0701	49293.7
84.0446	197041.5
91.0544	26439.7
93.0701	65407.3
95.0857	130111.2
96.0446	26166.2
99.0555	126198.9
102.0552	47289.1
108.0810	24194.6
109.1014	210237.8
110.0967	36025.5
111.0555	102977.9
111.1171	20157.0
119.0858	53048.4
125.0712	21464.4
126.1280	46261.0
129.0661	61408.7
130.0501	221914.8
130.0695	31822.4
134.0967	26523.8
136.1124	270316.5
137.0713	36894.9
137.0964	77892.5
151.0869	23857.7
151.1233	53604.5
152.1074	28116.5
153.1026	34568.0
154.1230	200980.0
169.1339	34637.2
179.1181	1459129.0
180.1216	68990.9
197.1285	9794345.0
198.1261	33037.6
198.1320	386838.8
214.1554	262560.8
215.1395	205967.7
215.1587	187902.3
252.1712	69790.4
263.1396	28215.3
280.1661	464001.4
298.1766	685833.1
298.1958	25876.5
308.1613	25467.7
326.1327	1060220.4
326.1714	2042592.1
326.1898	274924.2
END IONS

BEGIN IONS
NAME=HMDB0011738_472.24019_10.9
SMILES=C[C@H]1NC(=O)N[C@H]1CCCCCC(=O)N[C@@H](CCC(=O)N[C@@H](CCC(N)=O)C(=O)O)C(=O)O
MSLEVEL=MS2
INSTRUMENT_TYPE=Orbitrap
SOURCE_INSTRUMENT=
IONMODE=Positive
COLLISION_ENERGY=
FORMULA=C20H33N5O8
EXACTMASS=471.23291
PEPMASS=472.24019
ADDUCT=M+H
RTINSECONDS=10.9
83.0607	447906.5
84.0447	7152897.0
95.0858	327772.4
99.0556	331594.9
101.0713	1528573.4
102.0553	656713.8
109.1015	587658.4
122.0604	1698781.5
129.0663	4246366.5
130.0502	10999741.0
136.1125	785419.4
137.0966	318312.9
147.0768	8633597.0
150.0554	2311507.5
154.1231	777906.5
167.0820	725494.7
168.0660	8662875.0
179.1184	5581139.0
195.0770	2923012.5
196.0610	3405433.8
197.1288	52854836.0
212.1037	324885.2
213.0875	6487815.5
214.1555	23676712.0
215.1397	1731271.9
240.0986	1084414.3
241.0825	4655672.5
242.0667	480366.4
252.1714	1245318.3
258.1091	13726104.0
259.0932	4553971.5
263.1399	925365.3
276.1198	6058102.5
280.1663	5620301.0
297.1931	346473.2
298.1770	5677143.5
308.1615	529125.1
325.1880	1887260.1
326.1717	16638634.0
343.1984	10126403.0
344.1827	3200478.5
408.2254	553675.4
409.2094	3771976.8
426.2361	788672.8
427.2202	1145705.8
436.2205	3848410.3
437.2046	3276787.3
454.2303	17446920.0
455.2147	10311653.0
472.2406	41518460.0
END IONS

BEGIN IONS
NAME=HMDB0000167_316.1867_11.66
SMILES=C[C@@H](O)[C@H](NC(=O)CCCCC[C@@H]1NC(=O)N[C@@H]1C)C(=O)O
MSLEVEL=MS2
INSTRUMENT_TYPE=Orbitrap
SOURCE_INSTRUMENT=
IONMODE=Positive
COLLISION_ENERGY=
FORMULA=C14H25N3O5
EXACTMASS=315.17942
PEPMASS=316.1867
ADDUCT=M+H
RTINSECONDS=11.66
69.0699	3903806.0
74.0601	9819848.0
95.0856	5140417.5
99.0553	4591083.0
102.0550	4452914.5
109.1012	8040437.5
111.0553	4036165.5
120.0655	15683011.0
136.1121	10415680.0
154.1226	6923572.5
179.1178	52754920.0
197.1283	268606080.0
215.1389	26884660.0
226.1550	4008831.8
252.1706	21822058.0
254.1863	10799772.0
270.1813	13000964.0
280.1655	28774980.0
298.1758	185677664.0
316.1865	54954648.0
END IONS

BEGIN IONS
NAME=HMDB0000002_271.21285_8.44
SMILES=C[C@H]1NC(=O)N[C@H]1CCCCCC(=O)NCCCN
MSLEVEL=MS2
INSTRUMENT_TYPE=Orbitrap
SOURCE_INSTRUMENT=
IONMODE=Positive
COLLISION_ENERGY=
FORMULA=C13H26N4O2
EXACTMASS=270.20558
PEPMASS=271.21285
ADDUCT=M+H
RTINSECONDS=8.44
57.0699	22403.1
58.0652	19835.2
69.0699	19374.2
95.0856	19500.8
103.0754	28062.9
109.1012	15150.3
113.0710	22900.8
117.0911	14095.4
136.1121	19172.1
153.1387	36647.8
179.1179	56488.8
181.1336	18502.2
194.1540	69497.8
196.1444	176789.4
197.1284	264831.2
226.1550	13502.6
253.2024	56611.0
254.1861	1295680.9
271.2126	1264097.3
271.2632	154813.3
END IONS

BEGIN IONS
NAME=HMDB0002006_301.18703_8.8
SMILES=C[C@H]1NC(=O)N[C@H]1CCCCCC(=O)N[C@@H](CN)C(=O)O
MSLEVEL=MS2
INSTRUMENT_TYPE=Orbitrap
SOURCE_INSTRUMENT=
IONMODE=Positive
COLLISION_ENERGY=
FORMULA=C13H24N4O4
EXACTMASS=300.17976
PEPMASS=301.18703
ADDUCT=M+H
RTINSECONDS=8.8
59.0606	351786.8
67.0545	239749.5
69.0702	242179.9
70.0654	79666.1
81.0702	126582.4
88.0396	1037076.5
93.0703	156545.8
95.0859	384301.4
96.0448	73784.9
99.0557	313558.2
105.0662	1448978.8
109.1016	523489.0
110.0969	119723.9
111.0557	240276.1
113.0714	275006.3
119.0860	130199.6
126.1282	105896.5
134.0970	100045.8
136.1126	593660.1
137.0966	194092.4
151.1236	146762.3
152.1076	79235.5
153.1029	110681.9
153.1393	99629.2
154.1232	463419.0
167.1185	72320.1
169.1342	74849.0
177.1393	1119301.8
178.1233	311699.7
179.1185	2945159.8
193.1343	352016.6
194.1660	168397.8
196.1452	376933.4
197.1288	14754949.0
215.1398	538970.7
220.1452	511543.8
221.1293	178949.3
223.1449	296748.8
226.1559	291435.3
237.1716	2625014.3
238.1557	2405651.8
240.1717	82442.9
254.1510	121033.9
255.1825	125047.4
256.1665	813130.2
266.1509	840228.9
272.1616	198440.5
283.1770	9006470.0
284.1611	3285680.3
301.1877	6796313.5
END IONS

BEGIN IONS
NAME=HMDB0002006_301.18703_9.3
SMILES=C[C@H]1NC(=O)N[C@H]1CCCCCC(=O)NC[C@H](N)C(=O)O
MSLEVEL=MS2
INSTRUMENT_TYPE=Orbitrap
SOURCE_INSTRUMENT=
IONMODE=Positive
COLLISION_ENERGY=
FORMULA=C13H24N4O4
EXACTMASS=300.17976
PEPMASS=301.18703
ADDUCT=M+H
RTINSECONDS=9.3
59.0606	351786.8
67.0545	239749.5
69.0702	242179.9
70.0654	79666.1
81.0702	126582.4
88.0396	1037076.5
93.0703	156545.8
95.0859	384301.4
96.0448	73784.9
99.0557	313558.2
105.0662	1448978.8
109.1016	523489.0
110.0969	119723.9
111.0557	240276.1
113.0714	275006.3
119.0860	130199.6
126.1282	105896.5
134.0970	100045.8
136.1126	593660.1
137.0966	194092.4
151.1236	146762.3
152.1076	79235.5
153.1029	110681.9
153.1393	99629.2
154.1232	463419.0
167.1185	72320.1
169.1342	74849.0
177.1393	1119301.8
178.1233	311699.7
179.1185	2945159.8
193.1343	352016.6
194.1660	168397.8
196.1452	376933.4
197.1288	14754949.0
215.1398	538970.7
220.1452	511543.8
221.1293	178949.3
223.1449	296748.8
226.1559	291435.3
237.1716	2625014.3
238.1557	2405651.8
240.1717	82442.9
254.1510	121033.9
255.1825	125047.4
256.1665	813130.2
266.1509	840228.9
272.1616	198440.5
283.1770	9006470.0
284.1611	3285680.3
301.1877	6796313.5
END IONS

BEGIN IONS
NAME=HMDB0001904_423.18743_15.3
SMILES=C[C@H]1NC(=O)N[C@H]1CCCCCC(=O)N[C@@H](Cc1ccc(O)c([N+](=O)[O-])c1)C(=O)O
MSLEVEL=MS2
INSTRUMENT_TYPE=Orbitrap
SOURCE_INSTRUMENT=
IONMODE=Positive
COLLISION_ENERGY=
FORMULA=C19H26N4O7
EXACTMASS=422.18015
PEPMASS=423.18743
ADDUCT=M+H
RTINSECONDS=15.3
67.0547	1705635.0
69.0704	946927.3
70.0657	512563.5
79.0549	615592.3
81.0705	1079887.5
84.0815	286761.1
91.0550	664745.3
93.0706	1384008.5
94.0659	364345.2
95.0499	218869.0
95.0863	2887820.5
96.0452	521587.9
99.0560	2738257.5
100.0765	223420.5
107.0864	223943.7
108.0816	444660.2
109.1020	4399101.5
110.0973	760562.0
111.0561	2275788.5
111.1177	394415.5
112.1130	264863.3
113.0718	222621.8
119.0865	1131993.9
125.0719	430459.3
126.1287	994946.8
134.0975	621661.0
136.1131	5432819.5
137.0720	743199.9
137.0972	1557228.5
151.0878	428120.8
151.1241	1208632.9
152.1082	529542.4
153.1034	696192.9
154.1238	4086113.8
162.0926	224934.7
169.1349	649705.3
179.1189	24281314.0
180.1032	241340.1
181.0620	3346395.3
196.1461	939289.6
197.1291	112043184.0
215.1404	9280394.0
227.0680	357882.2
359.1743	360232.1
360.1583	292765.5
377.1721	451358.2
377.1842	12447171.0
405.1801	1832831.6
423.1750	727311.8
423.1898	18921518.0
END IONS

BEGIN IONS
NAME=HMDB0000056_286.17613_11.42
SMILES=C[C@H]1NC(=O)N[C@H]1CCCCCC(=O)NCCC(=O)O
MSLEVEL=MS2
INSTRUMENT_TYPE=Orbitrap
SOURCE_INSTRUMENT=
IONMODE=Positive
COLLISION_ENERGY=
FORMULA=C13H23N3O4
EXACTMASS=285.16886
PEPMASS=286.17613
ADDUCT=M+H
RTINSECONDS=11.42
67.0545	20321412.0
69.0701	17320010.0
90.0553	36668508.0
95.0859	27321322.0
99.0556	22284070.0
109.1016	34748364.0
111.0557	16690662.0
113.0713	79658008.0
136.1126	44650224.0
154.1232	27088288.0
179.1184	176877328.0
196.1451	85664736.0
197.1288	703088896.0
214.1556	104702104.0
215.1398	21073628.0
224.1765	18057208.0
226.1556	104712456.0
250.1559	40391152.0
268.1659	907788992.0
286.1767	418129856.0
END IONS

BEGIN IONS
NAME=HMDB0000594_491.25003_14.6
SMILES=C[C@H]1NC(=O)N[C@H]1CCCCCC(=O)N[C@@H](CCC(=O)N[C@@H](Cc1ccccc1)C(=O)O)C(=O)O
MSLEVEL=MS2
INSTRUMENT_TYPE=Orbitrap
SOURCE_INSTRUMENT=
IONMODE=Positive
COLLISION_ENERGY=
FORMULA=C24H34N4O7
EXACTMASS=490.24275
PEPMASS=491.25003
ADDUCT=M+H
RTINSECONDS=14.6
67.0548	136164.4
84.0451	774817.3
91.0549	155059.2
93.0706	170666.8
95.0863	266902.0
99.0561	273223.2
102.0558	215324.0
103.0550	426345.6
109.1020	451429.4
111.0562	213109.8
119.0865	119476.5
120.0816	7544648.0
130.0509	454277.4
131.0502	360468.8
136.1131	566582.1
137.0972	180935.1
148.0616	131890.0
149.0609	117218.8
151.1242	120666.4
154.1238	590284.4
166.0874	4752634.5
179.1191	3513929.8
185.1088	294207.0
186.0925	10345044.0
196.1461	132614.6
197.1293	29191058.0
203.1194	169524.6
204.1035	197985.5
214.1563	9553975.0
215.1406	940941.2
231.1144	1393302.3
232.0984	2350352.0
249.1253	628487.8
252.1726	438529.5
259.1098	205811.7
263.1412	235905.3
277.1199	6669786.0
278.1045	546972.6
280.1676	1428162.1
295.1307	3062686.0
298.1781	2267272.3
299.1778	145930.7
326.1613	212478.9
326.1729	5112982.0
344.1843	1104279.4
427.2375	901138.9
445.2479	2717129.5
455.2326	329622.8
473.2433	1243109.5
491.2535	5421702.5
END IONS

BEGIN IONS
NAME=HMDB0004063_394.23365_14
SMILES=COc1cc(C(O)CN(C)C(=O)CCCCC[C@@H]2NC(=O)N[C@@H]2C)ccc1O
MSLEVEL=MS2
INSTRUMENT_TYPE=Orbitrap
SOURCE_INSTRUMENT=
IONMODE=Positive
COLLISION_ENERGY=
FORMULA=C20H31N3O5
EXACTMASS=393.22637
PEPMASS=394.23365
ADDUCT=M+H
RTINSECONDS=14.0
67.0545	95268.7
69.0701	116173.6
70.0654	28728.4
79.0545	40756.1
81.0702	62894.6
91.0546	45784.2
93.0702	84019.3
95.0495	31382.4
95.0859	165253.6
96.0448	30754.2
99.0556	168158.6
107.0495	23672.1
108.0812	23603.6
109.1016	270386.8
110.0968	44143.9
111.0557	133493.2
111.1172	27516.7
119.0860	76359.5
120.0812	160508.7
121.0652	97815.6
124.0523	32028.4
125.0714	24662.4
126.1282	59525.4
133.0527	24714.5
134.0969	37442.5
136.1125	350273.4
137.0602	31587.7
137.0715	45576.4
137.0966	94380.5
148.0762	275751.0
149.0602	165160.8
149.0841	53334.7
150.0555	32962.2
151.0759	53367.9
151.0871	27609.7
151.1235	71378.8
152.1075	38277.2
153.1028	61025.4
154.1232	284169.8
162.0919	46953.3
164.0714	19819.1
165.0789	494679.6
169.1342	52360.4
179.0947	36223.4
179.1184	2041247.5
180.1021	12378579.0
197.1287	11189041.0
345.1822	156089.9
358.2138	220811.3
376.2234	9670124.0
END IONS

BEGIN IONS
NAME=HMDB0000719_316.1867_11
SMILES=C[C@H]1NC(=O)N[C@H]1CCCCCC(=O)N[C@@H](CCO)C(=O)O
MSLEVEL=MS2
INSTRUMENT_TYPE=Orbitrap
SOURCE_INSTRUMENT=
IONMODE=Positive
COLLISION_ENERGY=
FORMULA=C14H25N3O5
EXACTMASS=315.17942
PEPMASS=316.1867
ADDUCT=M+H
RTINSECONDS=11.0
69.0699	850175.9
74.0601	3053614.3
95.0856	1055593.1
99.0553	1070230.5
109.1012	1511380.4
111.0553	823577.1
115.0390	4135443.0
115.0502	1393251.3
120.0655	5861728.5
136.1121	1963494.4
141.0659	1360017.0
154.1227	1505186.0
169.0607	11900239.0
179.1178	10567112.0
197.1283	52694992.0
215.1390	3629934.8
252.1707	1881310.0
280.1657	796679.7
298.1759	44752480.0
316.1868	4287650.5
END IONS

BEGIN IONS
NAME=HMDB0000216_366.20235_12
SMILES=C[C@H]1NC(=O)N[C@H]1CCCCCC(=O)NC[C@H](O)c1ccc(O)c(O)c1
MSLEVEL=MS2
INSTRUMENT_TYPE=Orbitrap
SOURCE_INSTRUMENT=
IONMODE=Positive
COLLISION_ENERGY=
FORMULA=C18H27N3O5
EXACTMASS=365.19507
PEPMASS=366.20235
ADDUCT=M+H
RTINSECONDS=12.0
67.0542	1295.8
95.0854	1509.2
99.0552	2337.5
107.0491	1351.7
109.1011	2630.8
111.0552	1814.6
112.1120	14420.6
113.0709	1851.8
115.0390	1689.8
120.4984	1858.0
120.5002	1343.5
120.5127	1600.2
120.5194	1474.1
120.5249	1253.6
135.0440	3041.5
136.1120	4026.7
138.0163	4710.1
152.0706	31882.9
153.1022	2081.2
154.1225	2347.8
163.0866	1325.2
165.1020	2888.6
179.1178	19910.5
190.0836	9703.1
191.0813	2418.9
197.1283	97643.5
198.1317	3300.6
208.0942	1442.1
232.5975	1279.0
233.0770	1929.0
233.0895	15066.4
237.1208	8296.7
251.0870	3656.5
251.1001	125931.4
255.4053	1270.5
305.1108	26380.8
306.0946	5043.3
306.1075	1572.4
307.0910	1411.6
323.1349	2228.4
330.1812	7696.4
331.1650	6063.6
348.1042	1828.8
348.1203	1533.6
348.1917	118831.3
349.9353	1402.9
366.1273	48652.5
366.1642	6422.3
366.1827	18794.8
366.2637	14865.8
END IONS

BEGIN IONS
NAME=HMDB0000182_343.23398_8.72
SMILES=C[C@H]1NC(=O)N[C@H]1CCCCCC(=O)N[C@@H](CCCCN)C(=O)O
MSLEVEL=MS2
INSTRUMENT_TYPE=Orbitrap
SOURCE_INSTRUMENT=
IONMODE=Positive
COLLISION_ENERGY=
FORMULA=C16H30N4O4
EXACTMASS=342.22671
PEPMASS=343.23398
ADDUCT=M+H
RTINSECONDS=8.72
72.0808	7999.6
84.0808	113490.8
101.1074	5348.4
129.1022	95973.8
130.0862	18876.2
147.1128	18297.1
179.1178	28997.4
181.1335	6385.7
197.1283	103705.4
214.1549	6489.8
267.0111	5642.4
268.9908	7368.3
283.0428	42471.9
301.0533	6732.0
303.9845	7364.0
304.9805	15997.1
307.2128	15983.7
325.2234	65561.0
343.2336	361822.8
344.9764	10442.6
END IONS

BEGIN IONS
NAME=HMDB0000182_343.23398_9.67
SMILES=C[C@H]1NC(=O)N[C@H]1CCCCCC(=O)NCCCC[C@H](N)C(=O)O
MSLEVEL=MS2
INSTRUMENT_TYPE=Orbitrap
SOURCE_INSTRUMENT=
IONMODE=Positive
COLLISION_ENERGY=
FORMULA=C16H30N4O4
EXACTMASS=342.22671
PEPMASS=343.23398
ADDUCT=M+H
RTINSECONDS=9.67
67.0542	3980.8
70.0651	3563.5
84.0808	328314.3
86.0965	3582.6
95.0855	4099.7
99.0554	4181.4
109.1011	6896.7
111.0553	4383.9
129.1022	5687.0
130.0862	24405.9
136.1121	7855.5
145.0495	4285.6
147.1128	5170.7
154.1226	7569.8
179.1178	50285.7
197.1283	371938.3
280.2016	553245.3
325.2231	3733.0
343.2335	928703.1
344.9760	5420.2
END IONS

BEGIN IONS
NAME=HMDB0001539_399.27143_9.26
SMILES=C[C@H]1NC(=O)N[C@H]1CCCCCC(=O)N[C@@H](CCC/N=C(\N)N(C)C)C(=O)O
MSLEVEL=MS2
INSTRUMENT_TYPE=Orbitrap
SOURCE_INSTRUMENT=
IONMODE=Positive
COLLISION_ENERGY=
FORMULA=C18H34N6O4
EXACTMASS=398.26415
PEPMASS=399.27143
ADDUCT=M+H
RTINSECONDS=9.26
70.0652	2158771.0
72.0445	641127.4
113.0711	619955.8
115.0867	1450308.3
116.0708	370546.8
141.1024	1566713.4
158.0926	1361971.6
179.1181	867460.6
181.1337	336133.4
196.1446	2040382.4
197.1285	6132009.5
203.1505	631656.8
214.1551	2388091.0
293.1975	635446.0
311.2079	2387219.8
312.1922	280103.6
337.1875	723624.5
354.2140	422411.9
382.2454	318340.5
399.2710	34500636.0
END IONS

BEGIN IONS
NAME=HMDB0000446_385.24455_11.9
SMILES=CC(=O)N[C@@H](CCCCNC(=O)CCCCC[C@@H]1NC(=O)N[C@@H]1C)C(=O)O
MSLEVEL=MS2
INSTRUMENT_TYPE=Orbitrap
SOURCE_INSTRUMENT=
IONMODE=Positive
COLLISION_ENERGY=
FORMULA=C18H32N4O5
EXACTMASS=384.23727
PEPMASS=385.24455
ADDUCT=M+H
RTINSECONDS=11.9
67.0546	2776774.3
69.0703	1347705.3
70.0655	594992.9
79.0546	540878.6
81.0703	844695.7
84.0811	228082176.0
85.0652	971514.7
91.0547	563184.9
93.0703	1243455.9
95.0860	2290191.0
99.0558	2237450.8
109.1017	3730840.3
110.0970	600770.3
111.0558	2045808.9
112.0763	699619.8
119.0861	995663.1
126.0920	3455226.0
126.1284	718995.8
129.1028	16658938.0
130.0869	8789759.0
134.0971	761059.3
136.1127	5327851.5
137.0717	599382.9
137.0968	1627931.0
147.1135	1890169.5
151.1237	1030939.3
152.1078	579495.3
153.1030	2077671.0
153.1394	868924.4
154.1234	4556825.0
169.1345	617565.7
171.1137	2976646.0
172.0977	3064259.0
179.1187	30421344.0
189.1243	7225478.5
196.1454	5402912.0
197.1290	265021600.0
214.1561	883239.4
215.1400	1192471.3
220.1708	516604.7
262.1925	594310.9
279.2198	745073.0
280.2025	453371584.0
297.2297	753688.4
321.2307	832705.7
325.2250	2675815.3
339.2408	12176195.0
343.2353	40139676.0
367.2354	45499932.0
385.2453	180701200.0
END IONS

BEGIN IONS
NAME=HMDB0001645_328.22308_15.5
SMILES=CCCC[C@H](NC(=O)CCCCC[C@@H]1NC(=O)N[C@@H]1C)C(=O)O
MSLEVEL=MS2
INSTRUMENT_TYPE=Orbitrap
SOURCE_INSTRUMENT=
IONMODE=Positive
COLLISION_ENERGY=
FORMULA=C16H29N3O4
EXACTMASS=327.21581
PEPMASS=328.22308
ADDUCT=M+H
RTINSECONDS=15.5
67.0542	52293.2
69.0699	84176.8
70.0651	10983.9
79.0542	14188.4
81.0698	36939.4
84.0808	9723.0
86.0964	781137.1
91.0541	14745.5
93.0698	36924.6
94.0650	7249.0
95.0855	63265.9
96.0442	12822.3
98.9841	101061.2
99.0553	66854.1
109.1011	109307.0
110.0963	21704.3
111.0552	56003.9
111.1167	9689.1
113.0709	7324.6
119.0854	36065.5
125.0709	11433.4
126.1277	24184.2
132.1018	92218.8
134.0962	13193.6
136.1120	133909.2
137.0710	15474.9
137.0960	39202.1
143.1674	7438.2
151.0866	10688.2
151.1229	28336.1
152.1069	14996.9
153.1022	27462.3
154.1225	98836.5
169.1334	20542.4
174.9922	12831.1
179.1178	701462.3
182.0516	7015.4
184.2902	7276.7
196.1442	28154.2
197.1282	3665202.5
207.1271	7263.4
215.1389	642676.9
237.1963	13631.9
264.2068	49613.6
265.1910	65642.2
268.1654	25482.4
282.2171	2673415.0
310.2123	228226.2
328.0815	6913.2
328.2227	1120795.1
END IONS

BEGIN IONS
NAME=HMDB0004041_316.1867_11.4
SMILES=C[C@H](O)[C@H](NC(=O)CCCCC[C@@H]1NC(=O)N[C@@H]1C)C(=O)O
MSLEVEL=MS2
INSTRUMENT_TYPE=Orbitrap
SOURCE_INSTRUMENT=
IONMODE=Positive
COLLISION_ENERGY=
FORMULA=C14H25N3O5
EXACTMASS=315.17942
PEPMASS=316.1867
ADDUCT=M+H
RTINSECONDS=11.4
56.0497	375941.0
58.0654	264113.6
67.0545	705806.8
69.0701	645278.5
70.0654	228703.3
74.0603	1712710.1
79.0546	210280.9
81.0702	407196.0
84.0448	161860.8
91.0546	197840.1
93.0703	487726.5
94.0655	136365.4
95.0859	1067607.8
96.0448	231004.6
99.0557	965272.8
102.0553	957394.9
108.0812	143944.8
109.1016	1599845.4
110.0969	300405.1
111.0557	767294.4
113.0714	513084.6
119.0860	394123.6
120.0660	1382002.9
125.0714	136976.5
126.1282	346837.4
134.0970	213972.5
136.1126	1770658.6
137.0715	218447.3
137.0966	502677.4
151.0872	130349.0
151.1236	367740.9
152.1076	195915.2
153.1029	232052.6
154.1232	1203147.1
169.1342	196742.6
179.1183	7167843.5
192.1390	433270.0
196.1453	284745.6
197.1285	31227980.0
215.1396	3531575.0
226.1559	424390.5
252.1714	2156447.0
254.1510	216642.0
254.1873	345977.7
270.1822	1317785.0
280.1577	118033.8
280.1664	2898007.0
298.1664	465630.0
298.1765	6930716.0
316.1878	2590896.0
END IONS

BEGIN IONS
NAME=HMDB0000033_423.23504_9.03
SMILES=C[C@H]1NC(=O)N[C@H]1CCCCCC(=O)NCCC(=O)N[C@@H](Cc1cnc[nH]1)C(=O)O
MSLEVEL=MS2
INSTRUMENT_TYPE=Orbitrap
SOURCE_INSTRUMENT=
IONMODE=Positive
COLLISION_ENERGY=
FORMULA=C19H30N6O5
EXACTMASS=422.22777
PEPMASS=423.23504
ADDUCT=M+H
RTINSECONDS=9.03
83.0609	991601.5
93.0453	842141.1
95.0609	720568.1
110.0717	21527890.0
113.0716	1400904.6
156.0774	16764311.0
164.0827	1617695.9
179.1189	972271.6
181.1094	581021.4
196.1455	1549138.9
197.1294	6758195.5
210.0884	1144335.3
214.1561	1981310.8
226.1562	1370816.4
250.1565	575226.3
268.1667	8550464.0
286.1779	786877.4
377.2312	4065194.5
405.2269	1197123.8
423.2361	18669630.0
END IONS

BEGIN IONS
NAME=HMDB0011737_473.2242_11.2
SMILES=C[C@H]1NC(=O)N[C@H]1CCCCCC(=O)N[C@@H](CCC(=O)N[C@@H](CCC(=O)O)C(=O)O)C(=O)O
MSLEVEL=MS2
INSTRUMENT_TYPE=Orbitrap
SOURCE_INSTRUMENT=
IONMODE=Positive
COLLISION_ENERGY=
FORMULA=C20H32N4O9
EXACTMASS=472.21693
PEPMASS=473.2242
ADDUCT=M+H
RTINSECONDS=11.2
67.0542	22831.0
84.0444	648603.8
85.0284	28219.8
95.0855	51163.8
99.0553	29310.3
102.0550	228816.3
109.1012	68620.6
111.0553	27526.5
122.0602	44952.2
130.0499	614342.3
136.1120	97088.6
137.0962	28674.7
148.0604	728002.7
150.0550	34779.9
151.1230	22326.1
154.1226	87197.0
168.0655	704063.3
179.1178	652572.1
195.0764	106420.6
196.0605	153725.8
196.1444	38932.4
197.1284	5409152.5
213.0870	213844.4
214.0709	764983.4
214.1549	2248169.5
215.1391	177338.6
231.0976	67444.1
241.0817	144835.8
242.0657	45479.3
252.1709	120964.1
259.0925	1803860.3
260.0766	159942.3
263.1390	108312.8
277.1030	1032710.5
280.1657	536592.3
281.1495	25999.9
282.0899	35573.8
298.1762	582854.6
308.1604	42111.4
325.1874	25094.0
326.1710	1464518.9
343.1975	30024.3
344.1818	232793.3
363.2031	25658.0
391.1974	35816.8
409.2083	517436.9
427.2189	688780.8
437.2031	439275.5
455.2135	1677301.5
473.2238	4597791.5
END IONS

BEGIN IONS
NAME=HMDB0006248_415.21873_11.6
SMILES=C[C@H](NC(=O)CC[C@H](NC(=O)CCCCC[C@@H]1NC(=O)N[C@@H]1C)C(=O)O)C(=O)O
MSLEVEL=MS2
INSTRUMENT_TYPE=Orbitrap
SOURCE_INSTRUMENT=
IONMODE=Positive
COLLISION_ENERGY=
FORMULA=C18H30N4O7
EXACTMASS=414.21145
PEPMASS=415.21873
ADDUCT=M+H
RTINSECONDS=11.6
67.0544	178865.5
69.0701	145645.6
82.0654	490878.9
84.0446	1287068.6
90.0552	2578253.5
93.0702	147571.3
95.0858	321525.1
99.0556	323020.4
102.0552	204002.2
109.0763	208649.5
109.1015	545240.6
110.0603	962148.3
111.0556	254752.9
119.0858	127309.2
126.1281	106715.3
128.0709	2138632.5
130.0502	1145741.4
136.1124	664222.3
137.0964	242798.1
151.1234	153254.0
153.1027	146884.5
154.1230	668339.7
155.0819	1108267.6
156.0657	8123171.0
169.1340	106020.9
173.0925	350211.4
179.1182	4341400.5
183.0768	350729.3
196.1450	209326.0
197.1285	32580918.0
201.0872	9217570.0
202.0714	1710660.6
214.1552	13333687.0
215.1395	1149647.0
219.0978	8453757.0
223.1446	230869.9
240.1712	268819.6
252.1713	409139.7
263.1397	191056.6
280.1662	1566525.5
298.1767	2526221.8
308.1612	159545.0
323.2087	184229.8
326.1712	6087929.0
344.1823	1012034.8
351.2033	1623788.3
369.2138	2505365.0
379.1982	1491291.8
397.2088	3243532.3
415.2185	11694411.0
END IONS

BEGIN IONS
NAME=HMDB0060475_344.18161_11.58
SMILES=C[C@H]1NC(=O)N[C@H]1CCCCCC(=O)NC(CCC(=O)O)C(=O)O
MSLEVEL=MS2
INSTRUMENT_TYPE=Orbitrap
SOURCE_INSTRUMENT=
IONMODE=Positive
COLLISION_ENERGY=
FORMULA=C15H25N3O6
EXACTMASS=343.17434
PEPMASS=344.18161
ADDUCT=M+H
RTINSECONDS=11.58
69.0699	3303321.0
84.0445	12784007.0
95.0856	4964604.5
99.0554	4803910.0
102.0550	8633428.0
109.1013	7788694.5
111.0554	3775151.5
130.0500	8252167.0
136.1122	9249676.0
148.0605	26909428.0
154.1227	7340167.5
179.1179	51589108.0
197.1281	290179968.0
214.1550	10040297.0
215.1390	27144086.0
252.1709	3908756.5
280.1656	14505570.0
298.1759	45626556.0
326.1708	41347052.0
344.1812	67480752.0
END IONS

BEGIN IONS
NAME=HMDB0000123_272.16048_11.43
SMILES=C[C@H]1NC(=O)N[C@H]1CCCCCC(=O)NCC(=O)O
MSLEVEL=MS2
INSTRUMENT_TYPE=Orbitrap
SOURCE_INSTRUMENT=
IONMODE=Positive
COLLISION_ENERGY=
FORMULA=C12H21N3O4
EXACTMASS=271.15321
PEPMASS=272.16048
ADDUCT=M+H
RTINSECONDS=11.43
67.0543	8893942.0
69.0700	8313617.5
81.0700	4733109.5
93.0700	5782988.5
95.0857	11993341.0
99.0555	10680763.0
109.1013	17299044.0
111.0555	8355984.0
113.0711	29153410.0
119.0857	4471536.5
136.1123	18319418.0
137.0963	5715895.5
151.1232	4530915.0
154.1228	11275358.0
179.1180	76323520.0
197.1282	343162016.0
215.1392	14232910.0
226.1551	45431228.0
254.1502	17128992.0
272.1605	105309752.0
END IONS

BEGIN IONS
NAME=HMDB0000001_366.21358_8.8
SMILES=C[C@H]1NC(=O)N[C@H]1CCCCCC(=O)N[C@@H](Cc1cn(C)cn1)C(=O)O
MSLEVEL=MS2
INSTRUMENT_TYPE=Orbitrap
SOURCE_INSTRUMENT=
IONMODE=Positive
COLLISION_ENERGY=
FORMULA=C17H27N5O4
EXACTMASS=365.2063
PEPMASS=366.21358
ADDUCT=M+H
RTINSECONDS=8.8
67.0543	9486.3
68.0495	18650.6
69.0699	10088.7
70.0651	6445.3
83.0605	14878.6
86.0965	7206.6
93.0699	6607.8
95.0605	53662.9
95.0856	13222.6
96.0683	139086.0
97.0761	53653.9
99.0554	17652.4
107.0605	7270.1
109.0760	640755.9
109.1013	18888.7
110.0714	14190.6
111.0554	19390.8
124.0870	136778.5
125.0710	27600.6
126.1026	432941.4
135.0554	23727.0
136.0869	8079.5
136.1122	18933.0
137.0962	6081.5
153.0659	254355.4
153.1023	7679.1
154.1227	15219.8
170.0923	891740.1
179.1179	84824.9
181.1336	67938.2
197.1285	140918.0
211.1442	6844.7
229.1549	6922.4
236.1760	9471.5
237.1204	11773.3
244.1811	16609.5
262.1916	98901.1
277.2027	6934.2
279.2182	29457.1
280.1658	6405.2
287.1870	17069.7
304.2135	90985.6
305.1975	12062.7
306.1816	64655.9
320.2083	99933.0
322.2238	237255.9
323.2079	35365.9
348.2034	35714.6
349.1884	6053.5
366.2126	5456131.0
END IONS

BEGIN IONS
NAME=HMDB0001325_385.28093_8.8
SMILES=C[C@H]1NC(=O)N[C@H]1CCCCCC(=O)N[C@@H](CCCC[N+](C)(C)C)C(=O)[O-]
MSLEVEL=MS2
INSTRUMENT_TYPE=Orbitrap
SOURCE_INSTRUMENT=
IONMODE=Positive
COLLISION_ENERGY=
FORMULA=C19H36N4O4
EXACTMASS=384.27366
PEPMASS=385.28093
ADDUCT=M+H
RTINSECONDS=8.8
60.0808	105773.9
67.0542	42920.3
69.0699	29933.1
70.0651	6818.6
81.0699	7920.0
84.0808	464944.8
85.0648	22457.0
86.0964	52590.9
93.0699	9732.5
95.0855	24886.6
99.0553	20438.9
102.0913	7059.0
109.1012	39493.2
111.0552	15123.3
114.1277	10937.2
119.0855	9674.2
126.1277	6161.9
130.0862	263133.4
134.0963	8689.5
136.1120	47655.2
137.0961	18922.2
143.1542	18796.8
144.1382	44571.5
151.1229	10504.4
153.1021	7157.1
153.1386	17220.1
154.1226	42433.6
179.1178	287794.3
181.1335	16963.2
189.1597	138382.6
196.1443	121097.7
197.1282	1499960.0
211.1440	19373.1
214.1548	237806.9
215.1389	70577.5
222.1852	8074.7
225.0429	6492.3
229.1547	11513.8
262.1916	9800.5
263.1753	12801.0
264.2071	26403.7
280.2017	309651.6
282.2178	20972.7
308.1965	16896.5
326.2075	94000.2
339.2760	12584.2
341.2907	32351.8
342.2750	15884.2
367.2708	11785.9
385.2796	9478589.0
END IONS

BEGIN IONS
NAME=HMDB0000070_326.20743_14.8
SMILES=C[C@H]1NC(=O)N[C@H]1CCCCCC(=O)N1CCCCC1C(=O)O
MSLEVEL=MS2
INSTRUMENT_TYPE=Orbitrap
SOURCE_INSTRUMENT=
IONMODE=Positive
COLLISION_ENERGY=
FORMULA=C16H27N3O4
EXACTMASS=325.20016
PEPMASS=326.20743
ADDUCT=M+H
RTINSECONDS=14.8
56.0494	35723.2
67.0542	58541.6
69.0698	48020.1
70.0651	15945.3
79.0542	26223.4
81.0698	46254.8
82.0651	17464.9
84.0806	5068622.0
93.0698	26057.4
95.0854	67040.0
98.0964	19395.6
99.0552	155256.9
108.0806	17982.3
109.1011	84421.1
111.0552	81783.2
119.0854	22565.5
122.0963	21060.7
125.0595	29457.3
126.0912	122173.9
126.1275	19721.4
130.0809	22221.7
130.0860	6375269.0
136.1119	106352.2
137.0708	24585.7
137.0960	29549.8
142.0860	23791.8
150.0912	55430.4
151.0864	29530.7
151.1228	21133.3
152.0705	107903.5
153.1021	16283.1
154.1225	88953.6
165.1020	72760.4
167.1177	39759.9
168.1017	26665.0
169.0970	29222.5
175.0865	16916.1
179.1177	609692.4
181.1333	22795.6
183.1125	18291.9
193.0970	151731.6
197.1281	3549841.8
211.1075	233950.0
211.1439	20490.0
215.1389	32099.9
280.2014	5141598.5
308.1962	3403959.5
326.1342	39108.8
326.1721	23521.3
326.2068	1265321.8
END IONS

BEGIN IONS
NAME=HMDB0000883_314.20743_14.13
SMILES=CC(C)[C@H](NC(=O)CCCCC[C@@H]1NC(=O)N[C@@H]1C)C(=O)O
MSLEVEL=MS2
INSTRUMENT_TYPE=Orbitrap
SOURCE_INSTRUMENT=
IONMODE=Positive
COLLISION_ENERGY=
FORMULA=C15H27N3O4
EXACTMASS=313.20016
PEPMASS=314.20743
ADDUCT=M+H
RTINSECONDS=14.13
55.0542	325275.8
69.0698	488605.3
72.0807	6141323.5
93.0698	292702.6
95.0854	689927.9
99.0552	622309.9
109.1010	1039079.1
111.0552	511331.8
118.0861	729202.4
136.1119	1317003.6
137.0960	344180.0
151.1227	267824.6
154.1224	928616.3
179.1175	6851260.5
197.1280	30609706.0
215.1386	7135441.0
250.1910	2773926.0
268.2012	28571524.0
296.1964	2778108.0
314.2067	10871228.0
END IONS

BEGIN IONS
NAME=HMDB0000479_366.21358_8.8
SMILES=C[C@H]1NC(=O)N[C@H]1CCCCCC(=O)N[C@@H](Cc1cncn1C)C(=O)O
MSLEVEL=MS2
INSTRUMENT_TYPE=Orbitrap
SOURCE_INSTRUMENT=
IONMODE=Positive
COLLISION_ENERGY=
FORMULA=C17H27N5O4
EXACTMASS=365.2063
PEPMASS=366.21358
ADDUCT=M+H
RTINSECONDS=8.8
67.0542	25795.5
68.0494	37612.9
69.0698	30753.6
83.0604	36276.5
93.0699	22115.7
95.0604	135991.3
95.0855	40712.5
96.0682	432343.4
97.0760	150425.9
99.0552	45539.2
107.0603	23576.6
109.0759	1872807.3
109.1010	52166.6
110.0712	29243.1
111.0552	53482.9
119.0855	14901.2
124.0868	397165.6
125.0708	82901.4
126.1024	1262364.4
135.0552	65190.5
136.0869	30516.1
136.1120	46244.1
137.0959	14431.3
138.1275	16445.0
145.0760	17131.5
152.0819	14468.2
153.0657	755766.8
153.1020	23496.6
154.1226	42597.2
170.0922	2708641.5
179.1177	261597.8
181.1334	194159.1
197.1283	408362.8
211.1439	27051.5
229.1545	22096.8
236.1756	29318.3
244.1805	59444.7
261.2072	22167.9
262.1912	308831.9
277.2022	28580.2
279.2177	96023.8
280.1653	26572.1
287.1866	52678.8
304.2131	274521.6
305.1975	38003.9
306.1811	211813.9
320.2078	355434.8
322.2235	805721.7
323.2076	116844.6
348.2029	148913.9
END IONS

BEGIN IONS
NAME=HMDB0244973_364.1867_13.1
SMILES=C[C@H]1NC(=O)N[C@H]1CCCCCC(=O)NC(C(=O)O)c1ccc(O)cc1
MSLEVEL=MS2
INSTRUMENT_TYPE=Orbitrap
SOURCE_INSTRUMENT=
IONMODE=Positive
COLLISION_ENERGY=
FORMULA=C18H25N3O5
EXACTMASS=363.17942
PEPMASS=364.1867
ADDUCT=M+H
RTINSECONDS=13.1
67.0545	182742.0
69.0702	139101.2
70.0655	49335.4
77.0390	77578.1
79.0546	68089.4
81.0703	103429.9
84.0812	27549.5
91.0547	66110.0
93.0703	133997.0
94.0656	39963.7
95.0496	659593.7
95.0859	326006.1
96.0448	57232.9
96.0812	23762.4
98.0969	54493.3
99.0557	268697.6
108.0812	55019.9
109.1016	421605.3
110.0969	79107.9
111.0558	206390.0
111.1173	32602.4
112.1126	60900.4
119.0861	120333.6
122.0604	6268369.0
123.0445	912564.5
124.1126	29414.0
125.0715	36720.4
126.1283	94962.2
134.0970	232243.0
136.1126	650285.1
137.0715	63717.1
137.0967	160034.7
151.0395	2666363.5
151.0872	46991.3
151.1236	151419.6
152.1076	59258.6
153.1029	60525.5
153.1392	583081.6
154.1233	405198.1
168.0660	32872.7
169.1343	69222.8
179.1184	2299858.8
196.1448	10243808.0
197.1287	10793127.0
214.1554	5925068.5
215.1398	58002.1
249.1230	24953.5
318.1822	1384769.0
346.1767	38186.1
364.1873	2528771.0
END IONS

BEGIN IONS
NAME=HMDB0013318_400.23432_14.4
SMILES=C[C@H]1NC(=O)N[C@H]1CCCCCC(=O)NC(Cc1c[nH]c2ccccc12)C(N)=O
MSLEVEL=MS2
INSTRUMENT_TYPE=Orbitrap
SOURCE_INSTRUMENT=
IONMODE=Positive
COLLISION_ENERGY=
FORMULA=C21H29N5O3
EXACTMASS=399.22704
PEPMASS=400.23432
ADDUCT=M+H
RTINSECONDS=14.4
67.0546	442129.6
69.0702	381180.4
93.0704	332244.4
95.0860	846464.7
99.0558	814794.1
109.1017	1258915.6
111.0558	639440.3
113.0715	830121.6
118.0657	651907.9
119.0861	285641.1
130.0658	1481058.6
132.0814	3092847.0
136.1127	1558598.4
137.0968	485527.3
142.0659	488745.0
144.0815	3239139.0
145.0768	325224.7
146.0607	2905458.8
151.1237	302636.0
153.1030	539550.8
154.1234	1463495.5
158.0847	264721.6
159.0922	21808128.0
160.0765	504656.5
167.1187	413955.7
169.0768	1417080.3
170.0608	1329986.0
179.1186	9517123.0
181.1344	510653.9
187.0874	3630464.8
188.0714	6554743.5
196.1454	883772.9
197.1289	43028560.0
204.1140	629661.3
226.1561	989131.2
238.1562	719906.8
253.1671	416413.6
254.1512	1161888.0
266.1512	1516081.6
277.1713	1908669.6
279.1870	312709.2
294.1978	354058.1
337.2031	12337266.0
338.1880	764454.8
339.2196	1099874.8
355.2135	34754736.0
365.1989	828564.2
383.1907	794641.1
383.2082	25651270.0
400.2357	9287965.0
END IONS

BEGIN IONS
NAME=HMDB0033780_329.18195_10.7
SMILES=C[C@H]1NC(=O)N[C@H]1CCCCCC(=O)N[C@H](CC(N)=O)C(=O)O
MSLEVEL=MS2
INSTRUMENT_TYPE=Orbitrap
SOURCE_INSTRUMENT=
IONMODE=Positive
COLLISION_ENERGY=
FORMULA=C14H24N4O5
EXACTMASS=328.17467
PEPMASS=329.18195
ADDUCT=M+H
RTINSECONDS=10.7
70.0289	1205773.5
87.0555	2993399.0
95.0858	1216154.9
99.0555	1080474.0
109.1014	1863635.6
111.0555	912931.4
124.0396	757537.4
133.0610	12383675.0
136.1124	2214555.8
154.1230	1745596.9
179.1181	11729695.0
197.1284	61975436.0
214.1554	816153.4
215.1393	5826604.0
240.1709	7400049.5
266.1502	7095599.5
283.1772	954583.7
311.1716	7929952.5
312.1555	14626712.0
329.1819	16398289.0
END IONS

BEGIN IONS
NAME=HMDB0002322_299.24415_8.89
SMILES=C[C@H]1NC(=O)N[C@H]1CCCCCC(=O)NCCCCCN
MSLEVEL=MS2
INSTRUMENT_TYPE=Orbitrap
SOURCE_INSTRUMENT=
IONMODE=Positive
COLLISION_ENERGY=
FORMULA=C15H30N4O2
EXACTMASS=298.23688
PEPMASS=299.24415
ADDUCT=M+H
RTINSECONDS=8.89
67.0546	421831.8
69.0702	1487784.3
86.0967	19216188.0
95.0860	674204.1
99.0558	424715.4
103.1235	1127962.4
109.1017	1012592.3
129.1029	455191.5
136.1128	987289.1
137.0968	448360.5
153.1394	479541.6
154.1234	916887.8
179.1187	3666974.5
196.1453	3997191.0
197.1291	9305515.0
222.1864	378590.2
265.1926	521105.8
281.2352	485319.7
282.2190	1961329.1
299.2445	33961200.0
END IONS

BEGIN IONS
NAME=HMDB0004437_302.20743_11.3
SMILES=C[C@H]1NC(=O)N[C@H]1CCCCCC(=O)N(CCO)CCO
MSLEVEL=MS2
INSTRUMENT_TYPE=Orbitrap
SOURCE_INSTRUMENT=
IONMODE=Positive
COLLISION_ENERGY=
FORMULA=C14H27N3O4
EXACTMASS=301.20016
PEPMASS=302.20743
ADDUCT=M+H
RTINSECONDS=11.3
67.0542	177132.6
69.0699	120535.8
70.0651	52967.6
79.0542	50613.6
81.0699	111583.4
86.0600	60240.5
88.0757	80182.0
91.0542	65253.7
93.0699	153622.9
94.0651	51040.4
95.0855	514700.3
96.0443	51802.2
96.0808	82689.9
98.0600	142495.7
98.0964	74643.0
99.0553	155098.0
106.0862	1277301.0
108.0808	59002.5
109.1012	354892.9
110.0964	149723.5
111.0553	141576.4
112.0757	52913.1
112.1121	70938.6
119.0855	106973.7
124.0756	64962.9
126.1275	51976.5
134.0964	322539.2
136.1120	604620.3
137.0961	102471.5
138.0913	76254.8
140.1070	92949.6
151.1230	118887.7
152.1070	52807.7
153.1022	89899.5
153.1386	694181.9
154.1226	339892.7
169.1335	44144.6
178.1224	57531.0
179.1177	2403654.5
180.1381	2120294.3
196.1442	2923680.8
197.1282	11561170.0
197.1646	182698.6
222.1599	83169.0
223.1440	457823.1
240.1702	27970776.0
241.1546	211316.8
258.1812	168101.4
284.1967	1629441.1
302.2069	20229652.0
END IONS

BEGIN IONS
NAME=HMDB0034367_475.2221_13.3
SMILES=CSCC[C@H](NC(=O)CC[C@H](NC(=O)CCCCC[C@@H]1NC(=O)N[C@@H]1C)C(=O)O)C(=O)O
MSLEVEL=MS2
INSTRUMENT_TYPE=Orbitrap
SOURCE_INSTRUMENT=
IONMODE=Positive
COLLISION_ENERGY=
FORMULA=C20H34N4O7S
EXACTMASS=474.21482
PEPMASS=475.2221
ADDUCT=M+H
RTINSECONDS=13.3
67.0543	38990.4
84.0446	146734.3
86.0602	121229.7
94.0653	52384.2
95.0857	60727.0
99.0555	69041.4
102.0552	90029.3
104.0530	436093.7
109.1014	109893.6
111.0555	53922.7
114.0552	42137.2
122.0602	567769.3
130.0501	116116.2
131.0163	164603.7
133.0320	534401.4
136.1123	132298.5
137.0964	48965.1
142.0501	56568.2
150.0585	1027238.0
154.1229	141763.3
167.0818	104057.1
168.0657	931495.6
170.0636	269358.0
179.1181	918929.0
196.1448	40840.6
197.1283	8176927.5
214.1551	2246294.3
215.0852	145284.6
215.1393	302561.3
216.0690	1026099.1
235.1445	80618.1
243.0802	58277.7
252.1710	231605.6
261.0904	2209991.8
262.0748	133676.0
263.1394	76443.6
279.1010	1302272.8
280.1659	533676.8
298.1763	988664.2
308.1608	46740.4
326.1710	3219552.3
335.2083	82875.0
344.1819	500440.2
363.2032	309037.8
381.2131	1334271.4
411.2065	121627.8
429.2171	341756.2
439.2017	161782.4
457.2120	791174.6
475.2214	3408296.8
END IONS

BEGIN IONS
NAME=HMDB0001065_334.21252_14.5
SMILES=C[C@H]1NC(=O)N[C@H]1CCCCCC(=O)NCC(O)c1ccccc1
MSLEVEL=MS2
INSTRUMENT_TYPE=Orbitrap
SOURCE_INSTRUMENT=
IONMODE=Positive
COLLISION_ENERGY=
FORMULA=C18H27N3O3
EXACTMASS=333.20524
PEPMASS=334.21252
ADDUCT=M+H
RTINSECONDS=14.5
67.0542	214178.8
69.0698	234186.9
70.0651	67498.6
79.0542	78163.9
81.0698	150187.6
84.0807	43401.1
91.0542	108263.6
93.0698	212347.3
95.0491	45442.2
95.0854	373097.4
96.0443	87613.7
99.0552	379167.9
103.0541	237235.3
107.0854	40198.1
108.0806	48998.1
109.1011	556276.6
110.0964	118456.1
111.0552	320218.5
111.1168	58400.0
112.1120	52542.7
113.0707	36156.3
119.0855	175239.7
120.0806	6767883.0
125.0708	66398.4
126.1276	146132.5
134.0962	78065.3
136.1119	725344.6
137.0708	112945.0
137.0959	220341.0
151.0864	75063.7
151.1228	195603.6
152.1068	61303.7
153.1021	139401.3
154.1225	601826.4
157.0646	87247.6
167.1178	49180.2
169.1334	109850.1
179.1176	4428751.5
197.1281	24984694.0
203.1175	50556.8
215.1390	81358.7
219.1101	71575.9
238.1588	122488.0
256.1690	57111.1
271.1802	85231.6
281.1647	120790.7
298.1912	993685.7
299.1751	1221310.6
316.2013	19587212.0
334.2122	934250.1
END IONS

BEGIN IONS
NAME=HMDB0002064_327.23907_11.75
SMILES=CC(=O)NCCCCNC(=O)CCCCC[C@@H]1NC(=O)N[C@@H]1C
MSLEVEL=MS2
INSTRUMENT_TYPE=Orbitrap
SOURCE_INSTRUMENT=
IONMODE=Positive
COLLISION_ENERGY=
FORMULA=C16H30N4O3
EXACTMASS=326.23179
PEPMASS=327.23907
ADDUCT=M+H
RTINSECONDS=11.75
72.0808	32316096.0
95.0857	2562203.5
99.0554	2255710.3
109.1013	3754487.0
113.1074	7591552.5
114.0914	63386340.0
131.1180	22834512.0
136.1122	5064528.0
153.1388	5086878.0
154.1228	3659335.8
179.1180	23146438.0
196.1445	61988936.0
197.1285	70542464.0
208.1698	3470796.3
250.1917	2111599.5
267.2182	11441793.0
268.2018	121806704.0
285.2284	66780948.0
309.2288	16971686.0
327.2387	323302144.0
END IONS

BEGIN IONS
NAME=HMDB0255868_416.20274_12.4
SMILES=C[C@H]1NC(=O)N[C@H]1CCCCCC(=O)NC(CCOC(=O)CCC(=O)O)C(=O)O
MSLEVEL=MS2
INSTRUMENT_TYPE=Orbitrap
SOURCE_INSTRUMENT=
IONMODE=Positive
COLLISION_ENERGY=
FORMULA=C18H29N3O8
EXACTMASS=415.19546
PEPMASS=416.20274
ADDUCT=M+H
RTINSECONDS=12.4
56.0498	230292.8
67.0546	271700.1
69.0702	219289.5
70.0655	82988.5
74.0604	586623.8
79.0547	94049.6
81.0703	156998.6
84.0448	82977.6
91.0547	95315.0
93.0704	215543.7
95.0860	446073.5
96.0449	83992.7
99.0558	425516.1
101.0238	120242.3
102.0554	1602162.1
109.1017	800429.1
110.0970	112809.0
111.0559	358882.6
119.0862	203382.7
120.0661	1133346.4
126.1284	141033.2
134.0971	98653.0
136.1127	879477.2
137.0717	111956.1
137.0968	444186.3
151.1238	169746.6
152.1078	119515.9
153.1031	178563.4
154.1234	914278.1
169.1345	137906.7
179.1186	5448991.5
180.1027	86313.6
181.1343	74811.8
184.0614	164091.3
196.1456	149130.8
197.1288	33909124.0
202.0720	312855.8
215.1400	983288.8
220.0824	3336882.3
235.1454	199548.3
238.1448	75141.8
240.1720	88709.5
252.1715	7250612.0
280.1671	426673.9
298.1768	17865998.0
316.1884	397694.0
352.1888	81459.0
380.1835	138882.5
398.1942	855897.2
416.2042	4740531.0
END IONS

BEGIN IONS
NAME=HMDB0000582_722.02186_18.4
SMILES=C[C@H]1NC(=O)N[C@H]1CCCCCC(=O)NC(Cc1cc(I)c(Oc2ccc(O)cc2)c(I)c1)C(=O)O
MSLEVEL=MS2
INSTRUMENT_TYPE=Orbitrap
SOURCE_INSTRUMENT=
IONMODE=Positive
COLLISION_ENERGY=
FORMULA=C25H29I2N3O6
EXACTMASS=721.01458
PEPMASS=722.02186
ADDUCT=M+H
RTINSECONDS=18.4
79.0541	2762.0
81.0698	4522.7
89.0596	2997.8
91.0541	4083.4
93.0697	5555.6
95.0854	9658.7
96.0443	2132.9
99.0551	9079.8
103.0751	1762.7
108.0807	1589.3
109.1010	13585.0
110.0964	2647.2
111.0552	8337.5
119.0854	3269.1
126.1276	4273.9
133.0857	2305.5
134.0963	3039.4
136.1119	20476.8
137.0708	2900.4
137.0958	4705.3
151.0863	1911.1
151.1228	3817.0
152.1068	1873.7
153.1021	2886.4
154.1224	12746.4
169.1332	1592.9
179.1175	93498.5
196.1441	2661.1
197.1280	443185.3
214.1547	6168.0
215.1386	37318.9
237.1204	3125.7
324.9713	2021.5
352.9902	12856.7
381.9689	2403.3
463.2520	7784.5
464.2555	2362.2
479.8945	35712.0
525.9003	9021.8
549.1112	2867.1
592.2944	1793.1
593.2976	1687.2
658.0056	4705.6
658.9884	3977.5
676.0156	160589.7
704.0102	24877.1
721.3361	2566.8
722.0205	289946.3
722.3410	2756.6
722.4891	2607.9
END IONS

BEGIN IONS
NAME=HMDB0029415_376.15368_12.5
SMILES=C[C@H]1NC(=O)N[C@H]1CCCCCC(=O)NC(CSCC(=O)O)C(=O)O
MSLEVEL=MS2
INSTRUMENT_TYPE=Orbitrap
SOURCE_INSTRUMENT=
IONMODE=Positive
COLLISION_ENERGY=
FORMULA=C15H25N3O6S
EXACTMASS=375.14641
PEPMASS=376.15368
ADDUCT=M+H
RTINSECONDS=12.5
61.0109	661862.7
67.0545	461725.4
69.0702	377886.9
70.0654	143169.9
74.0062	134455.8
79.0546	142074.4
81.0702	264747.3
88.0219	411848.8
89.0059	1257596.8
91.0546	144635.1
93.0703	357438.2
95.0859	731734.8
96.0448	148546.8
99.0557	870200.3
109.1016	1225996.5
110.0969	216554.9
111.0557	598271.8
113.0714	120147.0
116.0169	453200.9
117.0009	610771.4
119.0860	307019.6
126.1282	273416.8
134.0275	2168163.0
134.0970	156124.3
135.0116	403580.3
136.1126	1431560.3
137.0715	185935.4
137.0966	392783.7
151.1236	329754.0
152.1076	162680.9
153.1029	227414.1
154.1232	1076684.0
162.0226	212485.3
163.0065	1854964.0
169.1342	201724.8
179.1184	6894112.0
180.0330	8685872.0
196.1452	897182.4
197.1286	30756796.0
215.1396	3930125.5
262.1401	141207.1
266.1508	1679821.6
270.1282	410683.6
271.1123	220414.5
312.1390	397478.3
330.1373	242429.0
330.1487	5992465.0
358.1443	922787.8
376.1409	323347.0
376.1540	7193421.5
END IONS

BEGIN IONS
NAME=HMDB0000022_364.22308_14.5
SMILES=COc1cc(CCNC(=O)CCCCC[C@@H]2NC(=O)N[C@@H]2C)ccc1O
MSLEVEL=MS2
INSTRUMENT_TYPE=Orbitrap
SOURCE_INSTRUMENT=
IONMODE=Positive
COLLISION_ENERGY=
FORMULA=C19H29N3O4
EXACTMASS=363.21581
PEPMASS=364.22308
ADDUCT=M+H
RTINSECONDS=14.5
65.0385	92186.7
67.0541	526414.4
69.0698	489820.1
70.0651	160119.3
79.0542	167267.6
81.0698	296625.7
93.0698	351028.2
94.0650	84981.8
95.0490	681512.8
95.0854	717163.8
96.0443	128299.6
99.0552	567045.3
109.1010	1116749.9
110.0964	169698.5
111.0551	579184.6
111.1167	123850.2
112.1118	79963.8
119.0490	2205219.3
119.0854	349809.7
123.0803	144793.1
125.0707	104893.5
126.1276	253141.9
134.0962	146064.9
136.0517	364884.3
136.1119	1361163.5
137.0595	382299.3
137.0708	175714.6
137.0959	474266.4
151.0750	36838968.0
151.1227	355529.9
152.1068	128636.8
153.1018	173370.7
153.1383	91893.7
154.1224	970367.9
168.1017	2635470.5
169.1333	137928.3
179.1175	7324562.5
194.0810	89243.4
196.1442	1586498.8
197.1190	77315.6
197.1281	22168364.0
214.1547	560021.2
235.1050	138327.2
249.1206	143840.8
304.1903	410725.3
321.2171	224806.2
346.2119	1897099.3
364.1477	82062.5
364.1983	288057.3
364.2220	55535684.0
END IONS

BEGIN IONS
NAME=HMDB0033871_304.20195_16.3
SMILES=C[C@H]1NC(=O)N[C@H]1CCCCCC(=O)NCc1ccccc1
MSLEVEL=MS2
INSTRUMENT_TYPE=Orbitrap
SOURCE_INSTRUMENT=
IONMODE=Positive
COLLISION_ENERGY=
FORMULA=C17H25N3O2
EXACTMASS=303.19468
PEPMASS=304.20195
ADDUCT=M+H
RTINSECONDS=16.3
65.0387	401719.2
67.0543	338329.4
69.0700	337922.4
70.0653	126329.5
79.0544	93419.6
81.0701	171941.1
84.0809	50255.1
86.0602	169852.2
87.0636	58056.9
91.0542	27670754.0
93.0700	218937.0
94.0653	56342.8
95.0857	489196.6
96.0446	88057.6
99.0555	445721.8
102.1279	152744.1
103.1312	84753.3
108.0809	1156592.5
109.1014	890877.6
110.0966	148291.9
111.0555	351644.9
111.1171	73519.2
113.0711	71629.3
119.0857	175039.5
125.0712	74440.0
126.1280	147564.7
134.0967	99820.6
136.1123	803124.3
137.0712	121019.1
137.0963	198042.8
151.0869	69145.6
151.1233	187655.8
152.1073	210365.3
153.1025	99329.8
154.1229	633373.5
169.0611	52293.5
169.1339	89613.8
170.0644	66136.0
179.1180	3663128.0
194.1292	187969.4
195.1133	141929.0
197.1285	13880352.0
203.0912	48476.2
212.1398	137449.7
244.1701	186885.3
261.1967	67135.4
286.1916	2572820.0
287.1757	2386383.0
304.2018	22362922.0
304.2844	49726.5
END IONS

BEGIN IONS
NAME=HMDB0000510_358.19726_11.9
SMILES=C[C@H]1NC(=O)N[C@H]1CCCCCC(=O)N[C@@H](CCCC(=O)O)C(=O)O
MSLEVEL=MS2
INSTRUMENT_TYPE=Orbitrap
SOURCE_INSTRUMENT=
IONMODE=Positive
COLLISION_ENERGY=
FORMULA=C16H27N3O6
EXACTMASS=357.18999
PEPMASS=358.19726
ADDUCT=M+H
RTINSECONDS=11.9
67.0542	307242.5
69.0698	346587.1
70.0651	228253.6
81.0698	162317.3
89.0596	117660.3
93.0698	213165.6
95.0854	434878.9
96.0443	103976.3
98.0599	2446610.5
99.0551	1339185.0
109.1011	664326.5
110.0963	114545.9
111.0552	333331.5
115.0388	238909.1
116.0704	2845988.0
119.0854	181994.6
126.1276	154146.4
136.1119	921726.5
137.0708	139025.5
137.0959	299480.9
144.0653	1013653.0
150.0911	125134.8
151.1228	203541.3
152.1069	102225.7
153.1020	136254.2
154.1224	737557.9
162.0758	2932856.3
165.1020	366049.8
169.1333	138903.8
179.1176	5666265.0
193.0968	482273.4
196.1443	236243.4
197.1280	32471780.0
211.1074	364924.4
214.1547	474802.4
215.1387	2661762.0
229.1179	127586.5
233.1646	202557.9
244.1288	607423.6
251.1753	320595.3
252.1705	646650.3
253.1545	119538.9
277.1544	582105.9
292.1652	117618.5
294.1808	3003416.5
312.1911	14032908.0
322.1760	305237.1
340.1862	3324968.5
358.1604	133138.5
358.1963	11263963.0
END IONS

BEGIN IONS
NAME=HMDB0000517_371.24013_8.92
SMILES=C[C@H]1NC(=O)N[C@H]1CCCCCC(=O)N[C@@H](CCCNC(=N)N)C(=O)O
MSLEVEL=MS2
INSTRUMENT_TYPE=Orbitrap
SOURCE_INSTRUMENT=
IONMODE=Positive
COLLISION_ENERGY=
FORMULA=C16H30N6O4
EXACTMASS=370.23285
PEPMASS=371.24013
ADDUCT=M+H
RTINSECONDS=8.92
70.0652	7827404.0
112.0871	1689307.4
113.0711	1997730.3
115.0867	4935632.0
116.0708	1139451.0
136.1123	602121.3
154.1229	581256.1
157.1086	550910.1
158.0926	5801214.5
175.1192	2316508.0
179.1181	3641346.8
196.1446	4521653.5
197.1285	18945440.0
214.1551	5570138.0
290.1980	690667.1
293.1976	895148.1
311.2079	4890860.0
337.1876	959411.1
354.2141	658911.0
371.2394	67205104.0
END IONS

BEGIN IONS
NAME=HMDB0000192_437.1523_10.59
SMILES=C[C@H]1NC(=O)N[C@H]1CCCCCC(=O)N[C@@H](CSSC[C@H](N)C(=O)O)C(=O)O
MSLEVEL=MS2
INSTRUMENT_TYPE=Orbitrap
SOURCE_INSTRUMENT=
IONMODE=Positive
COLLISION_ENERGY=
FORMULA=C16H28N4O6S2
EXACTMASS=436.14503
PEPMASS=437.1523
ADDUCT=M+H
RTINSECONDS=10.59
122.0269	188244.3
136.1120	74039.6
151.9833	148617.8
177.9990	80124.5
179.1177	460375.1
196.1443	160780.5
197.1281	2839379.0
214.1548	226992.8
215.1388	196120.2
241.0308	489984.8
254.1320	71237.5
266.1496	486715.5
270.1270	95952.0
272.1426	72412.5
284.1603	144231.3
300.1373	389899.7
316.1321	523369.9
318.1476	1393172.3
419.1416	123033.9
437.1512	3709216.0
END IONS

BEGIN IONS
NAME=HMDB0011172_443.25003_13.1
SMILES=CC(C)[C@H](NC(=O)CC[C@H](NC(=O)CCCCC[C@@H]1NC(=O)N[C@@H]1C)C(=O)O)C(=O)O
MSLEVEL=MS2
INSTRUMENT_TYPE=Orbitrap
SOURCE_INSTRUMENT=
IONMODE=Positive
COLLISION_ENERGY=
FORMULA=C20H34N4O7
EXACTMASS=442.24275
PEPMASS=443.25003
ADDUCT=M+H
RTINSECONDS=13.1
69.0697	14717.4
72.0807	244051.7
73.0283	16877.0
84.0442	72193.0
89.0595	90764.8
95.0854	17686.4
99.0551	16317.9
102.0548	13159.7
109.1010	31759.2
110.0963	18697.8
111.0550	12349.3
118.0860	205663.1
130.0496	37485.8
133.0856	68545.2
136.1118	42204.6
137.0958	12036.7
137.1070	33745.0
138.0910	225572.8
154.1223	33842.8
155.1175	40070.3
156.1015	185167.4
177.1117	16391.9
179.1175	246083.4
183.1124	152709.6
184.0964	414744.8
196.1441	14979.8
197.1279	2041499.4
201.1229	95950.8
211.1074	27656.9
214.1544	657252.9
215.1386	85738.3
229.1177	896639.9
230.1018	97382.0
247.0920	13236.4
247.1283	442795.3
252.1702	36184.4
263.1383	23842.7
280.1650	135161.7
298.1756	228735.3
308.1597	11914.2
326.1704	566454.2
344.1810	211183.2
351.2382	33477.1
379.2332	236672.5
397.2437	985157.3
407.2281	75829.9
425.2027	13864.9
425.2387	497959.1
443.2140	42845.8
443.2487	1650872.9
END IONS

BEGIN IONS
NAME=HMDB0001514_376.20783_9.9
SMILES=C[C@H]1NC(=O)N[C@H]1CCCCCC(=O)N[C@H]1C(O)O[C@H](CO)[C@@H](O)[C@@H]1O
MSLEVEL=MS2
INSTRUMENT_TYPE=Orbitrap
SOURCE_INSTRUMENT=
IONMODE=Positive
COLLISION_ENERGY=
FORMULA=C16H29N3O7
EXACTMASS=375.20055
PEPMASS=376.20783
ADDUCT=M+H
RTINSECONDS=9.9
67.0542	50117.0
69.0698	74989.4
80.0494	59534.6
84.0443	351482.3
93.0698	50794.2
95.0854	109092.6
96.0443	376967.7
98.0599	101794.3
99.0552	90521.5
108.0443	31352.0
109.1011	146516.8
111.0552	68142.9
119.0855	33707.1
126.0548	534964.3
126.1276	30801.3
136.1119	198953.4
137.0959	59109.8
144.0654	39199.3
151.1228	44936.1
152.1068	35579.5
153.1021	67702.1
154.1225	185226.1
167.1177	58568.6
169.1334	33488.0
179.1176	1473409.9
196.1443	45337.0
197.1281	8476445.0
204.1381	36928.0
214.1547	107275.2
215.1389	94754.0
231.1490	40920.7
238.1550	47694.7
244.1331	136837.9
250.1548	32119.3
252.1705	119476.3
256.1652	65602.5
262.1548	854883.8
264.1704	182529.8
274.1547	1721019.9
276.1708	37936.2
278.1497	44323.1
280.1651	5634620.5
287.1386	35080.5
292.1651	3537956.3
294.1808	103683.9
304.1652	1335052.6
322.1757	2129474.5
340.1862	113550.4
358.1965	5797538.0
376.2073	293489.5
END IONS

BEGIN IONS
NAME=HMDB0011171_457.26568_14.2
SMILES=CC(C)C[C@H](NC(=O)CC[C@H](NC(=O)CCCCC[C@@H]1NC(=O)N[C@@H]1C)C(=O)O)C(=O)O
MSLEVEL=MS2
INSTRUMENT_TYPE=Orbitrap
SOURCE_INSTRUMENT=
IONMODE=Positive
COLLISION_ENERGY=
FORMULA=C21H36N4O7
EXACTMASS=456.2584
PEPMASS=457.26568
ADDUCT=M+H
RTINSECONDS=14.2
67.0542	263819.6
84.0444	1037451.7
86.0600	1849218.3
86.0964	5199211.5
95.0854	354226.9
96.0443	274767.3
99.0552	337553.5
102.0548	287018.7
109.1011	649075.6
111.0552	239858.5
112.0756	224462.0
114.0548	1042940.4
130.0498	812342.5
132.1018	4252673.5
136.1119	648174.4
137.0960	224531.0
142.0498	1392039.9
151.1229	407314.7
152.1068	3669686.8
153.1020	211730.7
154.1225	748028.1
169.0857	250164.0
169.1335	458806.6
170.1174	983212.0
179.1177	4717317.5
197.1281	47538748.0
198.1122	7467068.5
214.1547	14368929.0
215.1388	2801917.5
225.1232	549472.6
243.1336	16723219.0
244.1177	1713857.1
252.1704	919879.8
253.1543	219327.6
261.1443	9473426.0
263.1386	431087.2
265.1908	313854.3
280.1653	3351938.0
282.2173	313207.3
298.1758	6243173.0
308.1603	277787.7
326.1706	18210788.0
344.1813	4247075.0
365.2541	548059.7
393.2493	5036555.5
394.2339	312196.3
411.2596	18100530.0
421.2442	1867232.6
439.2547	9773276.0
457.2646	37884272.0
END IONS

BEGIN IONS
NAME=HMDB0000265_847.91851_20.2
SMILES=C[C@H]1NC(=O)N[C@H]1CCCCCC(=O)N[C@@H](Cc1cc(I)c(Oc2ccc(O)c(I)c2)c(I)c1)C(=O)O
MSLEVEL=MS2
INSTRUMENT_TYPE=Orbitrap
SOURCE_INSTRUMENT=
IONMODE=Positive
COLLISION_ENERGY=
FORMULA=C25H28I3N3O6
EXACTMASS=846.91123
PEPMASS=847.91851
ADDUCT=M+H
RTINSECONDS=20.2
79.0541	4383.2
81.0698	4781.7
84.0807	2874.5
91.0541	6110.6
93.0697	6896.0
94.0649	2857.6
95.0490	3001.1
95.0854	15302.2
96.0442	3675.0
99.0551	15826.8
108.0807	3110.7
109.1010	19303.9
110.0962	2956.6
111.0550	13204.2
119.0853	6046.4
125.0708	2816.6
126.1275	3934.5
134.0961	2917.9
136.1118	28347.2
137.0707	4684.9
137.0959	6653.0
151.0862	3444.5
151.1228	6920.6
153.1019	4672.4
154.1224	14577.8
155.1175	4477.8
169.1332	3127.7
179.1175	124898.4
196.1441	5578.1
197.1280	529189.5
210.0669	5260.9
214.1546	19988.6
215.1386	41677.8
225.0778	3361.2
450.8676	3142.6
463.8756	12000.0
478.8866	14729.1
479.8941	4035.0
605.7911	37754.3
606.9944	3299.1
651.7978	6703.1
675.0078	19340.1
677.0232	21569.2
703.0027	6626.6
721.0126	36189.1
783.9014	5853.7
784.8859	6315.7
801.9116	166282.8
829.9066	34494.3
847.9166	371691.0
END IONS

BEGIN IONS
NAME=HMDB0013716_314.20743_14.4
SMILES=CCC[C@@H](NC(=O)CCCCC[C@@H]1NC(=O)N[C@@H]1C)C(=O)O
MSLEVEL=MS2
INSTRUMENT_TYPE=Orbitrap
SOURCE_INSTRUMENT=
IONMODE=Positive
COLLISION_ENERGY=
FORMULA=C15H27N3O4
EXACTMASS=313.20016
PEPMASS=314.20743
ADDUCT=M+H
RTINSECONDS=14.4
55.0542	108128.7
69.0698	807611.5
70.0651	315034.3
72.0807	7976796.5
79.0542	295858.3
81.0698	391177.0
84.0807	169530.5
91.0542	214006.0
93.0698	527300.6
94.0651	195786.4
95.0854	1201767.9
96.0443	221213.6
99.0552	1097349.1
100.0756	123382.3
107.0854	140852.2
108.0807	187557.2
109.1011	1852226.0
110.0963	412114.2
111.0551	984146.6
111.1167	217308.6
113.0708	135924.9
118.0861	1422289.8
119.0854	443788.0
125.0709	227913.3
126.1276	435458.9
134.0963	200546.9
135.0957	182350.7
136.0758	101103.0
136.1119	2289650.0
136.1152	119736.3
137.0707	273593.7
137.0959	611468.4
151.0865	206327.6
151.1228	451677.7
152.1068	207296.7
153.1022	406457.7
154.1224	1707891.6
162.0909	103126.5
169.1331	353647.3
179.1176	12397203.0
180.1014	160742.2
196.1441	476190.3
197.1280	71177512.0
215.1386	13992300.0
223.1801	143079.8
250.1912	802161.4
251.1751	1194360.8
268.2014	51905332.0
296.1965	4684855.0
314.2068	22555064.0
END IONS

BEGIN IONS
NAME=HMDB0003011_344.18161_12.98
SMILES=CC(=O)OC[C@H](NC(=O)CCCCC[C@@H]1NC(=O)N[C@@H]1C)C(=O)O
MSLEVEL=MS2
INSTRUMENT_TYPE=Orbitrap
SOURCE_INSTRUMENT=
IONMODE=Positive
COLLISION_ENERGY=
FORMULA=C15H25N3O6
EXACTMASS=343.17434
PEPMASS=344.18161
ADDUCT=M+H
RTINSECONDS=12.98
95.0854	1857788.3
99.0552	2441403.5
109.1011	2966402.5
111.0551	1128965.8
115.0388	4636388.5
130.0497	1356413.0
136.1119	3471551.0
148.0602	1787659.8
154.1224	2670870.8
167.1176	2464748.5
179.1176	19054214.0
197.1280	129079040.0
215.1387	11113956.0
230.1495	17923550.0
238.1547	4066768.0
256.1652	6109062.5
266.1495	16765723.0
284.1599	35118236.0
302.1706	14223277.0
344.1810	21720846.0
END IONS

BEGIN IONS
NAME=HMDB0000224_338.14755_14
SMILES=C[C@H]1NC(=O)N[C@H]1CCCCCC(=O)NCCOP(=O)(O)O
MSLEVEL=MS2
INSTRUMENT_TYPE=Orbitrap
SOURCE_INSTRUMENT=
IONMODE=Positive
COLLISION_ENERGY=
FORMULA=C12H24N3O6P
EXACTMASS=337.14027
PEPMASS=338.14755
ADDUCT=M+H
RTINSECONDS=14.0
67.0541	10813.6
69.0698	4768.7
79.0541	5551.4
81.0697	8750.8
86.0599	8414.9
91.0540	4463.9
93.0698	6382.5
95.0854	42801.3
96.0806	10620.7
98.0599	16711.6
98.0963	7396.7
99.0552	3954.0
109.1010	22834.5
110.0962	13613.0
111.0551	7060.0
112.1120	5512.5
115.0388	10282.2
119.0853	6413.3
124.0756	6047.7
134.0962	27753.3
136.1118	41170.4
137.0960	4906.0
138.0911	9404.2
140.1067	12442.3
142.1223	3962.6
149.0707	9380.0
151.1226	8265.8
153.1018	7600.4
153.1384	73156.1
154.1223	22087.8
163.0861	7210.5
178.1222	9941.2
179.1176	155249.9
180.1013	6702.4
180.1379	297665.7
191.0810	22973.2
195.1123	4363.9
196.1440	353704.3
197.1280	1129921.8
197.1642	29077.1
209.0915	8219.0
215.1385	6314.2
222.1597	8467.3
223.1436	58979.6
224.1020	5573.2
237.1208	5246.1
240.1700	5329006.5
297.0531	4009.8
338.0561	5223.3
338.1469	227040.9
END IONS

BEGIN IONS
NAME=HMDB0006055_328.1867_11.2
SMILES=C[C@H]1NC(=O)N[C@H]1CCCCCC(=O)N1C[C@H](O)C[C@H]1C(=O)O
MSLEVEL=MS2
INSTRUMENT_TYPE=Orbitrap
SOURCE_INSTRUMENT=
IONMODE=Positive
COLLISION_ENERGY=
FORMULA=C15H25N3O5
EXACTMASS=327.17942
PEPMASS=328.1867
ADDUCT=M+H
RTINSECONDS=11.2
58.0653	41674.2
67.0544	168523.4
68.0496	861687.6
69.0700	158622.0
70.0653	56725.3
79.0544	51531.9
81.0701	91358.0
84.0810	27366.9
86.0602	3995614.8
89.0600	25112.5
91.0544	53296.4
93.0701	127039.3
94.0654	30867.3
95.0858	261898.0
96.0446	43747.5
98.9844	36102.0
99.0555	244157.6
107.0858	21797.0
108.0811	38653.4
109.1014	406674.3
110.0967	71949.6
111.0555	198797.0
111.1171	35337.7
112.1124	21466.7
114.0552	113944.8
119.0859	99237.4
125.0712	37939.9
126.1280	96580.2
132.0656	15343186.0
134.0966	53463.6
136.1124	472294.3
137.0712	62424.6
137.0964	133674.0
151.0870	39221.2
151.1233	112284.7
152.1073	48905.8
153.1026	57223.4
154.1230	366170.8
162.0917	20228.1
169.1339	66128.7
179.1181	2523730.8
180.1022	22607.8
197.1285	11405148.0
215.1394	794990.7
246.1609	44216.0
264.1709	4265282.0
296.0563	57170.3
310.1766	1310641.6
328.0830	25198.0
328.1867	6328566.5
END IONS

BEGIN IONS
NAME=HMDB0001431_365.21833_10
SMILES=Cc1ncc(CO)c(CNC(=O)CCCCC[C@@H]2NC(=O)N[C@@H]2C)c1O
MSLEVEL=MS2
INSTRUMENT_TYPE=Orbitrap
SOURCE_INSTRUMENT=
IONMODE=Positive
COLLISION_ENERGY=
FORMULA=C18H28N4O4
EXACTMASS=364.21106
PEPMASS=365.21833
ADDUCT=M+H
RTINSECONDS=10.0
67.0543	56011.2
69.0699	49077.2
79.0543	32465.2
81.0700	33756.6
93.0700	41295.6
95.0856	83495.9
96.0809	39761.3
99.0554	62653.3
106.0652	137928.8
108.0809	33850.3
109.1013	239584.2
111.0554	57041.1
119.0856	34804.7
122.0602	27763.3
124.0758	135611.1
133.0762	44324.7
134.0601	553421.0
134.0965	46777.4
136.0758	510257.2
136.1122	157037.0
137.0962	43058.2
138.0914	22557.0
140.0707	141802.2
149.0711	168418.8
150.0789	81571.0
151.0865	5341290.5
151.1229	36952.0
152.0706	1045348.1
152.1071	114953.0
153.1023	41508.3
153.1387	109372.7
154.1228	107269.8
167.1181	28278.5
169.0972	40284.8
177.0660	90069.0
177.1024	38020.9
179.1179	733324.3
194.1289	306504.8
195.1129	220158.4
196.1444	1817042.4
197.1284	2441084.8
212.1394	626236.0
214.1551	339317.4
287.1757	65639.0
302.1866	34798.5
312.1711	24160.1
329.1972	930448.6
330.1816	211481.4
347.2074	3343178.5
365.2177	7624991.0
END IONS

BEGIN IONS
NAME=HMDB0001104_417.23438_15.7
SMILES=CC(=O)N[C@@H]1[C@@H](O)[C@H](O)[C@@H](CO)O[C@H]1NC(=O)CCCCC[C@@H]1NC(=O)N[C@@H]1C
MSLEVEL=MS2
INSTRUMENT_TYPE=Orbitrap
SOURCE_INSTRUMENT=
IONMODE=Positive
COLLISION_ENERGY=
FORMULA=C18H32N4O7
EXACTMASS=416.2271
PEPMASS=417.23438
ADDUCT=M+H
RTINSECONDS=15.7
55.0180	151401.4
59.0129	48192.0
60.0809	51365.6
72.0445	310644.6
73.0286	418240.9
74.0966	362786.8
86.0601	7830690.0
87.0442	755233.7
90.0552	100751.6
98.0242	50197.2
102.1277	20460460.0
114.0552	359626.4
115.0391	7264543.5
115.0503	758696.7
116.0344	121743.2
125.0712	20930.3
126.0552	125042.6
127.0504	975030.5
128.1072	2137523.8
130.0501	45483.9
141.0661	1138061.5
143.0818	441224.3
144.0659	38742.8
145.0610	19204.8
145.1339	40704.2
148.0607	694156.8
157.0975	23611.5
161.0924	441616.1
169.0608	19666630.0
184.0607	1131635.3
187.0717	360997.1
197.1288	233170.8
199.1442	6328754.0
202.0826	358223.9
203.1393	19645.6
215.1395	74292.8
228.1346	18706.5
230.1504	121694.1
243.0980	28385.5
270.1815	2104907.3
272.1247	72273.9
284.0884	92363.5
288.1922	1668390.8
290.1353	199770.7
298.1039	1516285.4
303.2032	98772.5
316.1141	3299019.8
344.1824	210076.4
399.2240	27088.7
417.2344	5548367.5
END IONS

BEGIN IONS
NAME=HMDB0001149_328.1867_11.81
SMILES=C[C@H]1NC(=O)N[C@H]1CCCCCC(=O)NCC(=O)CCC(=O)O
MSLEVEL=MS2
INSTRUMENT_TYPE=Orbitrap
SOURCE_INSTRUMENT=
IONMODE=Positive
COLLISION_ENERGY=
FORMULA=C15H25N3O5
EXACTMASS=327.17942
PEPMASS=328.1867
ADDUCT=M+H
RTINSECONDS=11.81
86.0601	20741610.0
95.0855	37240508.0
99.0553	27172726.0
109.1012	38563548.0
114.0550	45427800.0
132.0655	30947084.0
134.0964	36215124.0
136.1121	80753352.0
153.1022	24714274.0
154.1226	27985090.0
167.1179	35809720.0
179.1178	294424928.0
196.1444	28798874.0
197.1283	614296256.0
232.1332	23135838.0
249.1598	22085054.0
250.1438	34576804.0
292.1652	603777280.0
310.1756	1174833024.0
328.1862	448494080.0
END IONS

BEGIN IONS
NAME=HMDB0003355_314.20743_12.46
SMILES=C[C@H]1NC(=O)N[C@H]1CCCCCC(=O)NCCCCC(=O)O
MSLEVEL=MS2
INSTRUMENT_TYPE=Orbitrap
SOURCE_INSTRUMENT=
IONMODE=Positive
COLLISION_ENERGY=
FORMULA=C15H27N3O4
EXACTMASS=313.20016
PEPMASS=314.20743
ADDUCT=M+H
RTINSECONDS=12.46
67.0544	5382918.0
69.0701	4892146.5
93.0702	3895716.3
95.0858	8385688.0
99.0556	7074708.5
100.0759	112266696.0
101.0600	14085666.0
109.1015	11761617.0
111.0556	5817871.0
118.0866	6059992.5
134.0968	3675783.8
136.1125	15500539.0
137.0965	3697590.0
153.1391	6303800.0
154.1231	9226280.0
179.1182	59960616.0
196.1449	47536788.0
197.1284	354295840.0
296.1973	41796540.0
314.2078	57969340.0
END IONS

BEGIN IONS
NAME=HMDB0011667_401.20308_11.3
SMILES=C[C@H]1NC(=O)N[C@H]1CCCCCC(=O)N[C@@H](CCC(=O)NCC(=O)O)C(=O)O
MSLEVEL=MS2
INSTRUMENT_TYPE=Orbitrap
SOURCE_INSTRUMENT=
IONMODE=Positive
COLLISION_ENERGY=
FORMULA=C17H28N4O7
EXACTMASS=400.1958
PEPMASS=401.20308
ADDUCT=M+H
RTINSECONDS=11.3
76.0393	260948.8
84.0444	425738.8
96.0444	221504.8
114.0549	290269.8
130.0499	851940.2
142.0499	2104765.5
179.1179	1183615.0
187.0713	965628.1
188.0553	484480.8
197.1284	7634852.0
205.0819	2684341.5
214.1550	3321589.8
215.1390	286983.2
280.1654	221198.9
298.1761	405599.4
326.1709	1263249.9
337.1869	238836.7
365.1820	660300.2
383.1924	2282308.8
401.2031	7715298.0
END IONS

BEGIN IONS
NAME=HMDB0000112_300.19178_11.85
SMILES=C[C@H]1NC(=O)N[C@H]1CCCCCC(=O)NCCCC(=O)O
MSLEVEL=MS2
INSTRUMENT_TYPE=Orbitrap
SOURCE_INSTRUMENT=
IONMODE=Positive
COLLISION_ENERGY=
FORMULA=C14H25N3O4
EXACTMASS=299.18451
PEPMASS=300.19178
ADDUCT=M+H
RTINSECONDS=11.85
67.0543	21968454.0
69.0700	20756996.0
81.0700	12274043.0
86.0602	88236816.0
87.0442	32182242.0
93.0701	15079639.0
95.0857	31879884.0
99.0555	26914998.0
104.0708	19405256.0
109.1013	45866248.0
111.0555	23059212.0
136.1123	56214152.0
137.0963	15225109.0
151.1233	13209677.0
154.1229	36458664.0
179.1180	244122480.0
196.1447	55271044.0
197.1283	1310336384.0
282.1812	335091616.0
300.1917	216389040.0
END IONS

BEGIN IONS
NAME=HMDB0000125_504.21226_11.36
SMILES=C[C@H]1NC(=O)N[C@H]1CCCCCC(=O)N[C@@H](CCC(=O)N[C@@H](CS)C(=O)NCC(=O)O)C(=O)O
MSLEVEL=MS2
INSTRUMENT_TYPE=Orbitrap
SOURCE_INSTRUMENT=
IONMODE=Positive
COLLISION_ENERGY=
FORMULA=C20H33N5O8S
EXACTMASS=503.20498
PEPMASS=504.21226
ADDUCT=M+H
RTINSECONDS=11.36
153.1020	22639.5
167.1176	33560.5
179.1176	87190.8
181.0605	59823.7
196.1441	36830.0
197.1281	414686.5
199.0710	23364.9
233.0587	42666.8
254.1318	135998.3
257.0764	22808.4
272.1424	94562.4
282.1267	51467.7
300.1372	133838.6
311.1533	47280.5
339.1481	28638.3
357.1581	607368.8
375.1688	363551.4
429.1796	196116.2
486.2010	186253.8
504.2109	636507.0
END IONS

BEGIN IONS
NAME=HMDB0000819_380.218_12.6
SMILES=COc1cc(C(O)CNC(=O)CCCCC[C@@H]2NC(=O)N[C@@H]2C)ccc1O
MSLEVEL=MS2
INSTRUMENT_TYPE=Orbitrap
SOURCE_INSTRUMENT=
IONMODE=Positive
COLLISION_ENERGY=
FORMULA=C19H29N3O5
EXACTMASS=379.21072
PEPMASS=380.218
ADDUCT=M+H
RTINSECONDS=12.6
67.0542	864751.4
69.0699	929836.7
70.0652	256554.8
79.0543	450575.2
81.0699	557079.4
91.0543	389093.7
93.0699	746816.5
95.0856	1631623.0
96.0444	307437.2
99.0553	1536734.9
106.0652	1108180.8
108.0808	253884.6
109.1012	2355554.5
110.0965	424488.6
111.0553	1102676.9
111.1169	218201.4
113.0710	414761.7
119.0856	643662.5
121.0648	1298905.6
125.0709	202435.7
126.1278	530344.0
134.0601	2267538.8
134.0965	350567.2
136.1121	3208097.8
137.0598	254037.2
137.0709	382973.3
137.0961	887499.4
149.0597	3451154.3
151.0754	202378.6
151.0866	341380.2
151.1230	741997.9
152.1071	331868.4
153.1023	1044173.8
154.1227	2453006.5
166.0501	218758.7
166.0862	29677998.0
167.1179	210620.6
169.1336	426157.7
179.1178	17362334.0
196.1445	339601.0
197.1282	86458080.0
203.0702	585174.5
214.1549	293818.6
226.1548	318469.9
284.1646	1069341.6
327.1705	684228.2
344.1968	5665839.5
345.1810	3448885.0
362.2067	98797392.0
380.1819	963266.4
END IONS

BEGIN IONS
NAME=HMDB0062660_358.19726_12.3
SMILES=C[C@H]1NC(=O)N[C@H]1CCCCCC(=O)N(C)[C@@H](CCC(=O)O)C(=O)O
MSLEVEL=MS2
INSTRUMENT_TYPE=Orbitrap
SOURCE_INSTRUMENT=
IONMODE=Positive
COLLISION_ENERGY=
FORMULA=C16H27N3O6
EXACTMASS=357.18999
PEPMASS=358.19726
ADDUCT=M+H
RTINSECONDS=12.3
67.0542	21978.0
69.0698	21063.0
70.0651	70102.0
74.0964	12812.5
79.0542	10666.8
81.0699	15318.6
85.0284	15208.8
87.0440	14196.5
93.0698	15913.1
95.0854	32776.4
98.0599	1314116.3
99.0552	249080.8
109.1011	53991.7
111.0552	40463.3
113.0708	17075.6
115.0389	79993.1
116.0704	1395712.3
119.0854	13295.1
126.1275	13084.3
131.0337	12007.5
136.1120	62276.3
137.0708	14108.1
137.0960	13913.2
144.0654	479802.9
150.0912	36101.1
151.1228	13573.4
154.1225	48493.4
162.0758	3854037.8
165.1021	62261.9
168.1017	14146.6
179.1176	361080.4
183.1125	25311.9
193.0970	92100.4
197.1281	2502793.5
211.1075	166202.8
215.1387	428488.4
226.1182	16646.9
228.1705	26665.2
229.1180	112517.1
238.1074	12402.9
240.1703	19265.7
244.1290	166594.2
285.2001	12588.1
294.1817	12949.3
312.1915	287415.1
340.1508	23400.3
340.1861	704600.8
358.0666	14920.9
358.1606	72291.9
358.1968	493339.8
END IONS

BEGIN IONS
NAME=HMDB0000214_329.21833_8.56
SMILES=C[C@H]1NC(=O)N[C@H]1CCCCCC(=O)N[C@@H](CCCN)C(=O)O
MSLEVEL=MS2
INSTRUMENT_TYPE=Orbitrap
SOURCE_INSTRUMENT=
IONMODE=Positive
COLLISION_ENERGY=
FORMULA=C15H28N4O4
EXACTMASS=328.21106
PEPMASS=329.21833
ADDUCT=M+H
RTINSECONDS=8.56
70.0652	10694457.0
95.0857	554811.9
97.0762	832542.3
99.0555	680405.1
109.1014	892868.1
111.0555	627970.8
115.0867	28651974.0
116.0708	2047607.3
133.0974	585074.1
136.1123	1307459.6
154.1229	908084.0
179.1181	6319136.5
181.1338	2472689.3
196.1449	448091.5
197.1285	28532474.0
214.1554	821466.9
215.1395	609811.9
293.1975	4227786.0
311.2076	47209668.0
329.2185	7797611.5
END IONS

BEGIN IONS
NAME=HMDB0000214_329.21833_9.47
SMILES=C[C@H]1NC(=O)N[C@H]1CCCCCC(=O)NCCC[C@H](N)C(=O)O
MSLEVEL=MS2
INSTRUMENT_TYPE=Orbitrap
SOURCE_INSTRUMENT=
IONMODE=Positive
COLLISION_ENERGY=
FORMULA=C15H28N4O4
EXACTMASS=328.21106
PEPMASS=329.21833
ADDUCT=M+H
RTINSECONDS=9.47
67.0545	1159467.1
69.0701	1060611.1
70.0653	72491696.0
93.0703	1003764.1
95.0859	2197429.8
99.0557	2095150.9
109.1016	3499470.5
111.0557	1768813.3
115.0870	7639013.0
116.0710	11389123.0
133.0977	1244301.8
136.1126	4229369.5
137.0966	1295666.3
154.1232	3705721.8
179.1184	21195444.0
196.1453	996692.4
197.1286	154841408.0
266.1866	62108916.0
311.2090	2744963.5
329.2184	74423160.0
END IONS

BEGIN IONS
NAME=HMDB0001414_285.2285_8.58
SMILES=C[C@H]1NC(=O)N[C@H]1CCCCCC(=O)NCCCCN
MSLEVEL=MS2
INSTRUMENT_TYPE=Orbitrap
SOURCE_INSTRUMENT=
IONMODE=Positive
COLLISION_ENERGY=
FORMULA=C14H28N4O2
EXACTMASS=284.22123
PEPMASS=285.2285
ADDUCT=M+H
RTINSECONDS=8.58
67.0544	189797.4
72.0809	8150430.0
89.1076	290902.1
95.0858	414233.7
98.0603	275259.7
99.0556	193315.2
109.1015	435398.9
134.0968	456982.7
136.1125	728200.8
137.0965	198540.1
153.1390	1412059.4
154.1231	403392.9
179.1183	1954836.1
196.1447	8636941.0
197.1288	5185439.0
208.1702	528145.3
251.1762	279425.8
267.2188	627502.9
268.2022	3914755.5
285.2283	26685774.0
END IONS

BEGIN IONS
NAME=HMDB0000472_417.21325_13.12
SMILES=C[C@H]1NC(=O)N[C@H]1CCCCCC(=O)N[C@@H](Cc1c[nH]c2ccc(O)cc12)C(=O)O
MSLEVEL=MS2
INSTRUMENT_TYPE=Orbitrap
SOURCE_INSTRUMENT=
IONMODE=Positive
COLLISION_ENERGY=
FORMULA=C21H28N4O5
EXACTMASS=416.20597
PEPMASS=417.21325
ADDUCT=M+H
RTINSECONDS=13.12
136.1120	2009041.8
146.0599	3295585.2
148.0756	4605243.5
154.1225	2055579.8
158.0599	1882427.4
160.0755	2549749.2
162.0548	5964721.0
175.0864	57963992.0
179.1177	12732054.0
186.0548	1619795.2
197.1282	55933048.0
203.0813	1954954.2
204.0653	31291358.0
215.1388	6416905.5
221.0918	15112974.0
254.1497	1647965.5
266.1496	2456109.8
293.1646	2354462.2
353.1969	17096548.0
355.2126	1677857.1
371.2074	62298792.0
381.1917	1938895.9
399.2024	47163620.0
417.2129	100812008.0
END IONS

BEGIN IONS
NAME=HMDB0000251_322.14312_16.45
SMILES=C[C@H]1NC(=O)N[C@H]1CCCCCC(=O)NCCS(=O)(=O)O
MSLEVEL=MS2
INSTRUMENT_TYPE=Orbitrap
SOURCE_INSTRUMENT=
IONMODE=Positive
COLLISION_ENERGY=
FORMULA=C12H23N3O5S
EXACTMASS=321.13584
PEPMASS=322.14312
ADDUCT=M+H
RTINSECONDS=16.45
67.0541	2471218.5
69.0698	2294943.0
81.0698	1285233.5
93.0698	1455458.6
95.0854	3213072.0
99.0552	2980060.0
109.1011	5463076.0
111.0552	2629779.5
119.0854	1259601.1
126.0218	2682089.5
126.1276	1051727.6
136.1119	6605127.0
137.0959	1823788.4
151.1228	1580594.5
154.1225	4707398.0
179.1176	33366736.0
196.1443	1909871.9
197.1279	195237200.0
304.1323	3335117.0
322.1424	79050672.0
END IONS

BEGIN IONS
NAME=HMDB0250764_376.22308_16.87
SMILES=C[C@H]1NC(=O)N[C@H]1CCCCCC(=O)NC(CCc1ccccc1)C(=O)O
MSLEVEL=MS2
INSTRUMENT_TYPE=Orbitrap
SOURCE_INSTRUMENT=
IONMODE=Positive
COLLISION_ENERGY=
FORMULA=C20H29N3O4
EXACTMASS=375.21581
PEPMASS=376.22308
ADDUCT=M+H
RTINSECONDS=16.87
67.0541	4139106.5
69.0698	3162240.5
91.0540	29886412.0
93.0697	2060131.9
95.0853	5256089.0
99.0551	4337588.0
109.1009	6491480.5
111.0551	4490032.0
117.0696	43787152.0
119.0853	2063156.5
134.0961	96041512.0
136.1118	9319735.0
137.0958	2890365.0
142.1748	2913258.8
151.1226	2596303.5
154.1223	8079446.5
179.1175	62564860.0
180.1015	48425992.0
197.1184	2347458.2
197.1280	301228096.0
197.1402	2163077.8
214.1545	51988704.0
215.1386	44701080.0
312.2065	3034479.2
330.2168	213294256.0
358.2118	28694110.0
376.2224	209767424.0
END IONS

BEGIN IONS
NAME=HMDB0011747_322.15263_12.5
SMILES=C[C@H]1NC(=O)N[C@H]1CCCCCC(=O)NCCP(=O)(O)O
MSLEVEL=MS2
INSTRUMENT_TYPE=Orbitrap
SOURCE_INSTRUMENT=
IONMODE=Positive
COLLISION_ENERGY=
FORMULA=C12H24N3O5P
EXACTMASS=321.14536
PEPMASS=322.15263
ADDUCT=M+H
RTINSECONDS=12.5
67.0541	11894.6
69.0698	10771.0
70.0650	5395.9
80.9738	4166.6
81.0699	6472.1
91.0541	3712.7
93.0698	6819.4
95.0854	18605.1
96.0443	3969.8
97.0048	18612.5
98.0001	3106.3
98.9841	22802.9
99.0552	16743.8
108.0209	6900.1
108.0806	3236.4
109.0048	181959.1
109.1010	23840.2
110.0963	5354.2
111.0552	12642.7
119.0854	5325.6
125.0708	3262.4
126.0312	1115214.6
126.1276	6132.8
134.0963	14893.5
136.1119	40260.2
137.0708	5202.7
137.0959	9655.4
151.1229	9393.2
153.1019	3612.7
153.1385	17566.6
154.1224	26174.1
169.1332	4713.8
179.1176	197219.5
196.1441	165379.6
197.1281	883334.7
214.1546	3753.9
215.1386	709728.4
218.1261	6621.9
219.1101	11654.4
233.0895	24639.5
236.1370	6222.1
237.1207	30016.5
251.1001	19734.1
279.0950	8182.0
279.1675	3885.2
286.1314	6536.5
304.1416	272189.6
322.1380	49458.9
322.1520	1585530.5
322.1723	538800.4
END IONS

BEGIN IONS
NAME=HMDB0000245_423.22381_12.62
SMILES=C[C@H]1NC(=O)N[C@H]1CCCCCC(=O)NCc1[nH]cc(CCC(=O)O)c1CC(=O)O
MSLEVEL=MS2
INSTRUMENT_TYPE=Orbitrap
SOURCE_INSTRUMENT=
IONMODE=Positive
COLLISION_ENERGY=
FORMULA=C20H30N4O6
EXACTMASS=422.21653
PEPMASS=423.22381
ADDUCT=M+H
RTINSECONDS=12.62
94.0651	14821803.0
106.0650	15366659.0
113.0709	21997704.0
122.0600	29947396.0
136.0756	11266265.0
140.0705	9732989.0
148.0756	37039148.0
150.0549	48798200.0
152.0705	10441876.0
164.0705	37798384.0
166.0861	70800736.0
179.1178	27381210.0
182.0810	130686864.0
192.0655	26306544.0
197.1283	343273056.0
210.0759	930386624.0
214.1547	1254128256.0
226.1548	68105792.0
405.2130	9505793.0
423.2237	25592504.0
END IONS

BEGIN IONS
NAME=HMDB0003911_300.19178_12.2
SMILES=CC(CNC(=O)CCCCC[C@@H]1NC(=O)N[C@@H]1C)C(=O)O
MSLEVEL=MS2
INSTRUMENT_TYPE=Orbitrap
SOURCE_INSTRUMENT=
IONMODE=Positive
COLLISION_ENERGY=
FORMULA=C14H25N3O4
EXACTMASS=299.18451
PEPMASS=300.19178
ADDUCT=M+H
RTINSECONDS=12.2
67.0541	22010178.0
81.0698	22382708.0
95.0854	39470216.0
99.0552	25130490.0
104.0705	96017480.0
109.1010	42917808.0
111.0552	22384254.0
134.0963	62002920.0
136.1119	77664232.0
151.1228	24007622.0
153.1384	177180224.0
154.1225	28420974.0
179.1176	208721072.0
196.1442	1968930944.0
197.1282	686972480.0
214.1547	157776928.0
215.1387	48699832.0
240.1703	207810688.0
282.1809	1114807424.0
300.1914	1481218304.0
END IONS

BEGIN IONS
NAME=HMDB0000191_330.16596_11.45
SMILES=C[C@H]1NC(=O)N[C@H]1CCCCCC(=O)N[C@@H](CC(=O)O)C(=O)O
MSLEVEL=MS2
INSTRUMENT_TYPE=Orbitrap
SOURCE_INSTRUMENT=
IONMODE=Positive
COLLISION_ENERGY=
FORMULA=C14H23N3O6
EXACTMASS=329.15869
PEPMASS=330.16596
ADDUCT=M+H
RTINSECONDS=11.45
67.0541	874989.8
69.0698	980853.6
95.0854	1307039.5
99.0552	1363735.8
109.1010	1986519.4
111.0551	966792.8
132.0654	745797.7
134.0446	1237552.0
136.1119	2514709.3
137.0959	746768.1
154.1224	1778861.9
179.1176	12920176.0
197.1280	82052912.0
215.1387	5838928.5
240.1702	9925300.0
266.1497	1377426.6
266.1770	804718.7
312.1548	15874006.0
330.1652	24032082.0
330.1914	2067674.3
END IONS

BEGIN IONS
NAME=HMDB0000489_532.26132_10.2
SMILES=CC(=O)N[C@@H]1[C@@H](O)[C@H](O)[C@@H](CO)O[C@H]1NC(=O)C[C@H](NC(=O)CCCCC[C@@H]1NC(=O)N[C@@H]1C)C(=O)O
MSLEVEL=MS2
INSTRUMENT_TYPE=Orbitrap
SOURCE_INSTRUMENT=
IONMODE=Positive
COLLISION_ENERGY=
FORMULA=C22H37N5O10
EXACTMASS=531.25404
PEPMASS=532.26132
ADDUCT=M+H
RTINSECONDS=10.2
70.0291	170463.4
83.0608	209710.0
84.0447	3019370.8
87.0557	444594.6
96.0449	195499.6
98.0605	155475.1
101.0714	149458.2
109.1017	118330.3
111.0558	124157.3
122.0606	103938.6
125.0716	332240.2
126.0554	7067789.0
133.0613	2723535.5
136.1127	176643.2
138.0556	1780435.0
144.0662	321478.4
150.0557	286974.3
154.1234	193450.8
156.0775	101513.3
167.0823	512777.0
168.0662	1844631.8
179.1187	1230241.0
185.0929	136014.6
186.0769	665809.8
196.1454	248228.3
197.1289	16658072.0
203.1035	555140.8
204.0874	3041439.8
206.1186	110485.1
214.1559	365227.0
215.1399	1708543.6
216.0989	125682.2
221.1141	101258.5
223.1451	224412.6
240.1715	3404463.3
266.1509	2157894.5
283.1778	268260.3
311.1723	3771481.0
312.1561	10231961.0
329.1824	21568114.0
335.1730	313330.6
352.1996	298656.2
353.1836	476469.7
394.2106	121186.9
412.2209	1011904.9
418.2104	157127.1
437.2053	155184.1
478.2321	173189.2
514.2534	841730.1
532.2636	3363997.5
END IONS

BEGIN IONS
NAME=HMDB0060460_328.1867_11.5
SMILES=C[C@H]1NC(=O)N[C@H]1CCCCCC(=O)N1C[C@H](O)C[C@@H]1C(=O)O
MSLEVEL=MS2
INSTRUMENT_TYPE=Orbitrap
SOURCE_INSTRUMENT=
IONMODE=Positive
COLLISION_ENERGY=
FORMULA=C15H25N3O5
EXACTMASS=327.17942
PEPMASS=328.1867
ADDUCT=M+H
RTINSECONDS=11.5
58.0651	416623.1
67.0542	1632323.0
68.0494	7483614.0
69.0699	1889511.6
70.0651	661581.4
79.0542	613184.8
81.0699	968214.8
84.0808	307016.5
86.0600	35230004.0
91.0542	455678.3
93.0699	1243197.8
94.0651	266821.1
95.0855	2688743.3
96.0444	444752.2
97.0396	197994.4
99.0553	2277632.3
100.0757	177724.5
107.0855	198351.9
108.0808	334213.5
109.1011	4560957.0
110.0964	702747.4
111.0553	1957581.1
111.1169	462198.2
112.0756	191242.4
112.1121	182818.2
114.0549	441714.7
119.0855	1059195.8
125.0709	454429.8
126.1277	909445.9
132.0654	61951140.0
134.0964	555302.3
136.1120	4671311.0
137.0709	558860.1
137.0961	1436439.4
151.0867	431664.4
151.1230	1041895.8
152.1070	596829.1
153.1022	664822.3
154.1226	4146603.5
162.0911	283595.4
169.1335	670709.6
179.1177	29049354.0
180.1018	329465.9
195.1128	833299.4
197.1281	131771904.0
215.1388	12221410.0
246.1601	803745.8
264.1703	65140452.0
310.1758	27789888.0
328.1862	86611944.0
END IONS

BEGIN IONS
NAME=HMDB0000099_419.19588_10
SMILES=C[C@H]1NC(=O)N[C@H]1CCCCCC(=O)N[C@@H](CCSC[C@H](N)C(=O)O)C(=O)O
MSLEVEL=MS2
INSTRUMENT_TYPE=Orbitrap
SOURCE_INSTRUMENT=
IONMODE=Positive
COLLISION_ENERGY=
FORMULA=C17H30N4O6S
EXACTMASS=418.18861
PEPMASS=419.19588
ADDUCT=M+H
RTINSECONDS=10.0
88.0215	138874.9
114.0372	179843.8
134.0270	452989.3
160.0426	699805.7
179.1178	554146.4
197.1282	4373066.5
214.1548	1016599.9
215.1389	213040.3
223.0746	531828.6
223.1440	96061.5
252.1706	209923.0
298.1758	1466415.3
330.1481	342528.8
338.1533	162674.3
355.1799	131450.7
356.1635	656125.5
373.1901	573535.1
401.1852	357924.3
402.1692	180783.7
419.1949	6182389.5
END IONS

BEGIN IONS
NAME=HMDB0000099_419.19588_10.19
SMILES=C[C@H]1NC(=O)N[C@H]1CCCCCC(=O)N[C@@H](CSCC[C@H](N)C(=O)O)C(=O)O
MSLEVEL=MS2
INSTRUMENT_TYPE=Orbitrap
SOURCE_INSTRUMENT=
IONMODE=Positive
COLLISION_ENERGY=
FORMULA=C17H30N4O6S
EXACTMASS=418.18861
PEPMASS=419.19588
ADDUCT=M+H
RTINSECONDS=10.19
71.0854	5799.9
88.0214	14332.3
134.0267	33597.9
149.0230	12434.1
160.0424	11647.8
169.0605	4707.8
179.1175	26274.7
197.1280	157938.0
214.1545	18703.7
215.1386	12058.7
223.0743	27243.9
266.1494	20853.6
284.1596	5033.2
298.1751	6373.3
300.1371	19866.4
318.1476	99120.4
373.1901	5221.9
401.1835	6082.5
419.1589	9704.0
419.1947	263488.8
END IONS

BEGIN IONS
NAME=HMDB0002757_366.13295_16.32
SMILES=C[C@H]1NC(=O)N[C@H]1CCCCCC(=O)NC(CS(=O)(=O)O)C(=O)O
MSLEVEL=MS2
INSTRUMENT_TYPE=Orbitrap
SOURCE_INSTRUMENT=
IONMODE=Positive
COLLISION_ENERGY=
FORMULA=C13H23N3O7S
EXACTMASS=365.12567
PEPMASS=366.13295
ADDUCT=M+H
RTINSECONDS=16.32
67.0541	21412.8
69.0698	19045.5
95.0854	25711.1
99.0552	27961.6
109.1010	45107.5
111.0551	20738.0
136.1119	52199.4
151.1228	14417.0
152.1068	23604.2
154.1224	44802.6
179.1176	293757.3
197.1280	1865145.9
215.1386	388564.4
237.1205	980063.8
240.1703	93228.0
266.1497	31017.1
284.1602	31277.2
366.1323	308409.9
366.1629	240713.9
366.2381	15637.3
END IONS

BEGIN IONS
NAME=HMDB0042012_376.22308_14.5
SMILES=C[C@H]1NC(=O)N[C@H]1CCCCCC(=O)N1CCc2cc(O)c(O)cc2[C@@H]1C
MSLEVEL=MS2
INSTRUMENT_TYPE=Orbitrap
SOURCE_INSTRUMENT=
IONMODE=Positive
COLLISION_ENERGY=
FORMULA=C20H29N3O4
EXACTMASS=375.21581
PEPMASS=376.22308
ADDUCT=M+H
RTINSECONDS=14.5
67.0544	350481.8
69.0701	346801.9
70.0654	102489.2
79.0545	126825.2
81.0701	191411.1
91.0545	270576.3
93.0702	251850.0
95.0858	482998.2
96.0447	96021.3
99.0556	455887.2
108.0811	76061.7
109.1015	810719.1
110.0968	139350.0
111.0556	393928.1
111.1172	84323.3
113.0713	98361.5
115.0546	265691.8
117.0702	1451883.5
119.0859	202536.9
125.0713	76526.0
126.1281	148931.5
134.0968	108586.9
135.0808	84487.8
136.1125	934980.5
137.0601	1500388.6
137.0712	121078.9
137.0965	269160.6
145.0651	3921288.8
151.0758	160631.2
151.0870	72917.8
151.1234	231469.9
152.1074	136433.3
153.1027	198245.2
153.1390	69086.4
154.1230	725181.9
162.0918	70569.8
163.0757	6631058.5
164.0710	128058.4
165.0914	90313.1
169.1340	133150.4
178.0867	153909.8
179.1183	4951054.5
180.1021	15764348.0
196.1449	1338419.9
197.1286	19031700.0
214.1555	657053.0
316.1919	110268.2
358.2135	496258.1
359.1980	85785.0
376.2228	34558260.0
END IONS

BEGIN IONS
NAME=HMDB0242589_376.20783_9.9
SMILES=C[C@H]1NC(=O)N[C@H]1CCCCCC(=O)NC(C=O)C(O)C(O)C(O)CO
MSLEVEL=MS2
INSTRUMENT_TYPE=Orbitrap
SOURCE_INSTRUMENT=
IONMODE=Positive
COLLISION_ENERGY=
FORMULA=C16H29N3O7
EXACTMASS=375.20055
PEPMASS=376.20783
ADDUCT=M+H
RTINSECONDS=9.9
67.0541	32029.3
69.0698	33386.6
80.0494	22376.4
81.0698	23028.3
84.0443	273793.8
93.0697	21545.4
95.0854	66545.1
96.0442	109471.7
98.0599	88872.6
99.0551	63578.9
109.1010	98946.8
111.0551	48396.0
126.0547	282273.0
134.0963	19477.6
136.1119	130311.3
137.0958	35993.0
144.0652	34635.7
151.1228	29205.9
152.1068	19031.4
153.1020	39554.6
154.1224	112869.9
167.1175	22912.5
169.1333	19545.2
179.1175	920889.4
192.1380	25921.8
196.1441	25511.1
197.1280	4324725.5
214.1545	35130.5
215.1388	57859.3
219.1487	18431.7
220.1329	19674.8
238.1549	20373.6
244.1329	117226.5
250.1546	37618.8
252.1703	118480.8
256.1651	30475.3
262.1545	664818.8
264.1705	44429.7
274.1546	454084.3
276.1705	22930.6
278.1493	44475.6
280.1648	5355580.0
287.1383	29516.2
292.1650	932122.6
294.1809	97735.0
304.1650	1012391.6
322.1753	1321425.0
340.1863	146079.5
358.1961	2099424.0
376.2072	77624.3
END IONS

BEGIN IONS
NAME=HMDB0341308_392.20274_10.1
SMILES=C[C@H]1NC(=O)N[C@H]1CCCCCC(=O)N[C@H](C(=O)O)[C@@H](O)[C@H](O)[C@H](O)CO
MSLEVEL=MS2
INSTRUMENT_TYPE=Orbitrap
SOURCE_INSTRUMENT=
IONMODE=Positive
COLLISION_ENERGY=
FORMULA=C16H29N3O8
EXACTMASS=391.19546
PEPMASS=392.20274
ADDUCT=M+H
RTINSECONDS=10.1
67.0543	102891.9
68.0496	56361.3
69.0336	54446.3
69.0700	99381.0
72.0445	153282.2
80.0496	67050.3
81.0337	79481.5
81.0700	56299.3
85.0286	92021.8
93.0700	78682.0
95.0857	181734.0
96.0445	318635.9
97.0286	65118.2
98.0602	123809.1
99.0555	168899.0
109.1013	283314.9
111.0555	134102.5
114.0551	296503.4
115.0392	65859.3
119.0857	73147.2
124.0395	119911.7
126.1279	64267.0
132.0657	1087566.0
133.0497	67775.3
136.1123	361264.8
137.0963	108828.1
142.0501	115690.0
150.0763	389382.2
151.1232	77762.5
154.1229	306820.0
160.0607	329754.9
169.1339	54102.3
178.0712	344197.3
179.1180	2103956.8
196.0817	4403016.5
196.1447	75514.8
197.1283	12518063.0
214.1552	577896.1
215.1392	1238669.6
256.1659	51837.9
264.1711	61363.3
290.1505	81357.7
292.1661	106091.6
296.1610	191866.4
308.1606	1675048.9
320.1611	249530.6
338.1717	115976.6
356.1814	2741163.8
374.1919	6177971.0
392.2027	1765349.3
END IONS

BEGIN IONS
NAME=HMDB0000676_465.1836_11.04
SMILES=C[C@H]1NC(=O)N[C@H]1CCCCCC(=O)NC(CCSSCC[C@H](N)C(=O)O)C(=O)O
MSLEVEL=MS2
INSTRUMENT_TYPE=Orbitrap
SOURCE_INSTRUMENT=
IONMODE=Positive
COLLISION_ENERGY=
FORMULA=C18H32N4O6S2
EXACTMASS=464.17633
PEPMASS=465.1836
ADDUCT=M+H
RTINSECONDS=11.04
88.0216	528644.0
90.0373	88748.4
134.0271	447588.3
136.0427	209649.8
154.1227	76509.6
179.1179	474597.6
197.1283	4589281.0
214.1550	150430.6
215.1390	542598.7
236.1370	84008.3
252.1021	67817.7
252.1109	74559.0
252.1707	277619.0
296.1430	73824.4
314.1530	2380814.0
332.1635	4846876.0
364.1358	512297.1
419.1783	72163.8
465.1827	3726763.8
465.2501	118888.2
END IONS

BEGIN IONS
NAME=HMDB0341354_314.20743_13.6
SMILES=COC(=O)CCCNC(=O)CCCCC[C@@H]1NC(=O)N[C@@H]1C
MSLEVEL=MS2
INSTRUMENT_TYPE=Orbitrap
SOURCE_INSTRUMENT=
IONMODE=Positive
COLLISION_ENERGY=
FORMULA=C15H27N3O4
EXACTMASS=313.20016
PEPMASS=314.20743
ADDUCT=M+H
RTINSECONDS=13.6
59.0492	17404546.0
67.0543	20437160.0
69.0336	3241390.0
69.0700	18875486.0
70.0652	7194512.5
79.0544	6019533.5
81.0700	10521885.0
84.0809	2792681.3
86.0601	60355236.0
87.0442	4109388.3
91.0544	5897330.5
93.0700	14019862.0
94.0652	3507589.3
95.0856	27592998.0
96.0445	5945422.5
98.0965	2101268.8
99.0554	24230836.0
100.0758	14699690.0
101.0598	183090816.0
107.0857	2108999.5
108.0809	4692776.0
109.1013	40526136.0
110.0966	8426811.0
111.0554	20919782.0
111.1170	3825842.5
112.1122	2731428.0
113.0711	2059884.1
118.0864	33499330.0
119.0857	12206167.0
125.0711	4348194.0
126.1279	9507385.0
134.0966	9036792.0
136.1122	52376736.0
137.0711	7571643.5
137.0962	14782128.0
151.0868	4552205.0
151.1232	13805120.0
152.1072	4725676.5
153.1025	5782879.5
153.1389	9273734.0
154.1228	35032296.0
162.0916	1923505.1
169.1338	6643410.0
179.1179	243333840.0
180.1020	2334879.8
196.1447	42944592.0
197.1283	1273505664.0
282.1811	346701920.0
296.1973	9244978.0
314.2072	374271136.0
END IONS

BEGIN IONS
NAME=HMDB0000177_352.19793_8.77
SMILES=C[C@H]1NC(=O)N[C@H]1CCCCCC(=O)N[C@@H](Cc1cnc[nH]1)C(=O)O
MSLEVEL=MS2
INSTRUMENT_TYPE=Orbitrap
SOURCE_INSTRUMENT=
IONMODE=Positive
COLLISION_ENERGY=
FORMULA=C16H25N5O4
EXACTMASS=351.19065
PEPMASS=352.19793
ADDUCT=M+H
RTINSECONDS=8.77
83.0606	1267909.3
93.0450	1044383.5
95.0607	1116719.0
99.0556	230068.5
109.1016	300968.9
110.0714	31564928.0
111.0556	256011.1
136.1125	421112.3
154.1231	383098.3
156.0770	15972671.0
179.1183	1980481.9
181.1340	662878.6
196.1451	249748.7
197.1288	6541838.0
215.1396	428648.8
288.1828	551908.3
289.1668	454775.7
306.1928	15236527.0
334.1880	3801188.0
352.1980	33670228.0
END IONS

BEGIN IONS
NAME=HMDB0000194_437.25069_9.1
SMILES=C[C@H]1NC(=O)N[C@H]1CCCCCC(=O)NCCC(=O)N[C@@H](Cc1cncn1C)C(=O)O
MSLEVEL=MS2
INSTRUMENT_TYPE=Orbitrap
SOURCE_INSTRUMENT=
IONMODE=Positive
COLLISION_ENERGY=
FORMULA=C20H32N6O5
EXACTMASS=436.24342
PEPMASS=437.25069
ADDUCT=M+H
RTINSECONDS=9.1
83.0604	17833.4
95.0604	51802.5
95.0856	16187.9
96.0682	100206.6
97.0761	68718.2
99.0553	13066.3
109.0760	547455.9
109.1012	17048.9
110.0713	13526.9
113.0710	58806.9
121.0762	12814.3
124.0870	229139.6
125.0710	27979.6
126.1026	365322.3
133.0760	14578.9
135.0553	17006.1
136.1121	32216.1
145.0761	21449.7
150.1026	57151.0
153.0659	183458.5
153.1388	13703.7
154.1227	21926.9
160.0869	12791.1
162.1026	192234.2
168.1132	46892.3
170.0923	1276115.0
178.0975	22890.9
179.1179	122812.2
179.1289	19832.1
180.1131	224829.3
194.0925	23462.6
196.1445	95018.0
197.1284	551865.2
197.1396	437215.7
206.0924	103996.0
212.1030	23865.6
214.1550	117761.1
223.1190	26861.7
224.1029	348925.8
226.1551	67182.7
241.1294	768525.3
250.1552	31862.7
268.1656	285081.5
375.2508	33562.0
377.2176	27025.6
391.2452	180946.8
393.2609	294394.2
394.2447	17096.4
419.2403	90188.0
437.2495	12254992.0
END IONS

BEGIN IONS
NAME=HMDB0000162_312.19178_13.43
SMILES=C[C@H]1NC(=O)N[C@H]1CCCCCC(=O)N1CCC[C@H]1C(=O)O
MSLEVEL=MS2
INSTRUMENT_TYPE=Orbitrap
SOURCE_INSTRUMENT=
IONMODE=Positive
COLLISION_ENERGY=
FORMULA=C15H25N3O4
EXACTMASS=311.18451
PEPMASS=312.19178
ADDUCT=M+H
RTINSECONDS=13.43
67.0543	844001.1
70.0652	5782699.5
86.0601	1475830.5
97.0398	1339586.9
99.0554	470024.0
101.0598	2107105.3
109.1012	5789906.5
111.0554	1299820.9
116.0706	10689508.0
118.0864	512766.8
152.1071	2145543.0
177.1024	1570155.3
179.1180	1749175.0
194.1290	1507553.8
195.1128	9740648.0
197.1285	9389335.0
215.1393	555594.6
266.1863	5020570.0
280.1655	6657742.0
312.1916	12532873.0
END IONS

BEGIN IONS
NAME=HMDB0000271_286.17613_12.52
SMILES=C[C@H]1NC(=O)N[C@H]1CCCCCC(=O)N(C)CC(=O)O
MSLEVEL=MS2
INSTRUMENT_TYPE=Orbitrap
SOURCE_INSTRUMENT=
IONMODE=Positive
COLLISION_ENERGY=
FORMULA=C13H23N3O4
EXACTMASS=285.16886
PEPMASS=286.17613
ADDUCT=M+H
RTINSECONDS=12.52
67.0545	1961923.4
69.0701	1461517.4
81.0702	1003685.3
90.0552	21033936.0
93.0702	1274284.4
95.0859	2637809.5
99.0556	2656523.8
109.1016	3703952.8
111.0557	1839349.9
113.0713	7529963.5
119.0860	904650.9
136.1125	3729452.8
137.0966	943936.3
154.1232	2109347.3
179.1183	11821083.0
197.1284	62013256.0
215.1396	3812629.5
240.1716	2195667.3
268.1666	2193285.0
286.1772	3641716.0
END IONS

BEGIN IONS
NAME=HMDB0244979_368.25438_17.79
SMILES=C[C@H]1NC(=O)N[C@H]1CCCCCC(=O)NC(CC1CCCCC1)C(=O)O
MSLEVEL=MS2
INSTRUMENT_TYPE=Orbitrap
SOURCE_INSTRUMENT=
IONMODE=Positive
COLLISION_ENERGY=
FORMULA=C19H33N3O4
EXACTMASS=367.24711
PEPMASS=368.25438
ADDUCT=M+H
RTINSECONDS=17.79
67.0542	2851990.0
69.0698	2034348.0
83.0854	2448371.5
95.0854	3797704.2
99.0551	2863171.8
109.1010	6311389.0
111.0551	2557078.5
126.1275	92281600.0
136.1119	6935539.5
137.0960	1946065.4
142.1756	2214625.0
154.1224	5955676.0
172.1329	12668634.0
179.1176	39280872.0
196.1441	2238778.5
197.1281	214440240.0
214.1547	2256293.8
215.1387	35069932.0
226.1547	1897802.9
304.2378	4213691.0
305.2219	2940577.2
322.2483	248337248.0
350.2433	36061780.0
368.2539	256491168.0
END IONS

BEGIN IONS
NAME=HMDB0036458_298.17613_12.2
SMILES=C[C@H]1NC(=O)N[C@H]1CCCCCC(=O)NC1(C(=O)O)CC1
MSLEVEL=MS2
INSTRUMENT_TYPE=Orbitrap
SOURCE_INSTRUMENT=
IONMODE=Positive
COLLISION_ENERGY=
FORMULA=C14H23N3O4
EXACTMASS=297.16886
PEPMASS=298.17613
ADDUCT=M+H
RTINSECONDS=12.2
56.0494	4546933.0
67.0541	6953974.5
69.0698	6470985.0
81.0698	3187339.5
93.0697	4006493.5
95.0854	9513198.0
99.0551	8689118.0
109.1010	11869363.0
111.0551	5995458.0
136.1118	15238091.0
137.0959	3267979.3
154.1223	7894765.0
179.1176	66621140.0
192.1379	14351365.0
197.1281	357806976.0
215.1387	47927680.0
235.1437	3884360.8
252.1702	25407278.0
280.1651	115081912.0
298.1756	336400320.0
END IONS

BEGIN IONS
NAME=HMDB0002362_315.20268_9.46
SMILES=C[C@H]1NC(=O)N[C@H]1CCCCCC(=O)NCCC(N)C(=O)O
MSLEVEL=MS2
INSTRUMENT_TYPE=Orbitrap
SOURCE_INSTRUMENT=
IONMODE=Positive
COLLISION_ENERGY=
FORMULA=C14H26N4O4
EXACTMASS=314.19541
PEPMASS=315.20268
ADDUCT=M+H
RTINSECONDS=9.46
56.0495	67056548.0
95.0857	30868972.0
99.0554	25043260.0
101.0711	116129264.0
102.0551	31975196.0
109.1013	47393468.0
119.0817	23324714.0
136.1123	58100196.0
154.1229	51725576.0
179.1181	296057728.0
196.1448	52176336.0
197.1286	1789227904.0
214.1552	1683794816.0
252.1711	42699568.0
269.1976	212073408.0
270.1816	31350354.0
279.1819	34057844.0
297.1925	612097472.0
298.1766	97563888.0
315.2029	1997410048.0
END IONS

BEGIN IONS
NAME=HMDB0001906_300.19178_13.13
SMILES=C[C@H]1NC(=O)N[C@H]1CCCCCC(=O)NC(C)(C)C(=O)O
MSLEVEL=MS2
INSTRUMENT_TYPE=Orbitrap
SOURCE_INSTRUMENT=
IONMODE=Positive
COLLISION_ENERGY=
FORMULA=C14H25N3O4
EXACTMASS=299.18451
PEPMASS=300.19178
ADDUCT=M+H
RTINSECONDS=13.13
58.0650	89396600.0
67.0541	25989580.0
69.0698	24911396.0
81.0698	13694208.0
93.0698	15202556.0
95.0854	29520050.0
99.0552	28223012.0
104.0705	19392278.0
109.1011	44242532.0
111.0552	22998980.0
136.1119	56635716.0
137.0959	15754889.0
154.1225	34312920.0
179.1177	271261920.0
197.1282	1316092416.0
215.1388	258193152.0
237.1595	15296249.0
254.1860	864818880.0
282.1809	148900800.0
300.1915	839723008.0
END IONS

BEGIN IONS
NAME=HMDB0000259_373.22342_13.8
SMILES=C[C@H]1NC(=O)N[C@H]1CCCCCC(=O)NCCc1c[nH]c2ccc(O)cc12
MSLEVEL=MS2
INSTRUMENT_TYPE=Orbitrap
SOURCE_INSTRUMENT=
IONMODE=Positive
COLLISION_ENERGY=
FORMULA=C20H28N4O3
EXACTMASS=372.21614
PEPMASS=373.22342
ADDUCT=M+H
RTINSECONDS=13.8
67.0545	4139210.0
95.0858	6205831.0
99.0556	5097948.5
109.1015	8794459.0
111.0556	4194596.0
115.0546	11740944.0
117.0577	6595874.5
132.0812	20767248.0
136.1125	10137966.0
142.0655	4171966.5
154.1232	8771862.0
160.0759	867987072.0
177.1028	18779818.0
179.1183	55850644.0
197.1289	248063728.0
214.1555	68504128.0
240.1714	3902561.0
355.2136	71852920.0
356.1982	9075565.0
373.2237	725136064.0
END IONS

BEGIN IONS
NAME=HMDB0000306_334.21252_14.15
SMILES=C[C@H]1NC(=O)N[C@H]1CCCCCC(=O)NCCc1ccc(O)cc1
MSLEVEL=MS2
INSTRUMENT_TYPE=Orbitrap
SOURCE_INSTRUMENT=
IONMODE=Positive
COLLISION_ENERGY=
FORMULA=C18H27N3O3
EXACTMASS=333.20524
PEPMASS=334.21252
ADDUCT=M+H
RTINSECONDS=14.15
67.0541	5457760.0
69.0698	6783348.0
91.0541	7339691.5
93.0698	13052618.0
95.0854	9096022.0
99.0552	6905669.5
103.0541	6448744.5
109.1010	13799474.0
111.0551	5722749.0
121.0645	331530784.0
136.1119	14803891.0
138.0911	39117480.0
154.1224	11430969.0
179.1175	74738248.0
196.1440	121400336.0
197.1280	295690208.0
214.1545	6942205.0
274.1798	9662962.0
316.2014	12021394.0
334.2115	777575616.0
END IONS

BEGIN IONS
NAME=HMDB0001901_328.22308_13.15
SMILES=C[C@H]1NC(=O)N[C@H]1CCCCCC(=O)NCCCCCC(=O)O
MSLEVEL=MS2
INSTRUMENT_TYPE=Orbitrap
SOURCE_INSTRUMENT=
IONMODE=Positive
COLLISION_ENERGY=
FORMULA=C16H29N3O4
EXACTMASS=327.21581
PEPMASS=328.22308
ADDUCT=M+H
RTINSECONDS=13.15
67.0541	22939302.0
69.0698	60487044.0
79.0541	23780060.0
95.0854	37139448.0
96.0806	21206670.0
99.0551	25207878.0
109.1010	54018492.0
111.0551	28565732.0
114.0912	623475328.0
132.1017	43369312.0
134.0962	29392888.0
136.1118	78688240.0
151.1227	21053448.0
153.1384	76502064.0
154.1224	43790772.0
179.1176	332237280.0
196.1441	581607616.0
197.1281	1867131264.0
310.2120	958087936.0
328.2225	1449853952.0
END IONS

BEGIN IONS
NAME=HMDB0001432_327.2503_9.13
SMILES=C[C@H]1NC(=O)N[C@H]1CCCCCC(=O)NCCCCNC(=N)N
MSLEVEL=MS2
INSTRUMENT_TYPE=Orbitrap
SOURCE_INSTRUMENT=
IONMODE=Positive
COLLISION_ENERGY=
FORMULA=C15H30N6O2
EXACTMASS=326.24302
PEPMASS=327.2503
ADDUCT=M+H
RTINSECONDS=9.13
72.0807	113761920.0
97.0760	19896654.0
98.0600	12916338.0
109.1011	11456408.0
114.1024	242995104.0
115.0865	56181348.0
136.1120	18949674.0
153.1385	20948504.0
154.1225	15479842.0
179.1177	78496536.0
196.1442	281187136.0
197.1282	331053632.0
208.1694	20077964.0
250.1912	25039440.0
267.2177	74506000.0
268.2016	104249440.0
285.2282	61538440.0
293.1969	71209496.0
310.2234	487236608.0
327.2498	2652133120.0
END IONS

BEGIN IONS
NAME=HMDB0000052_487.25109_9.76
SMILES=C[C@H]1NC(=O)N[C@H]1CCCCCC(=O)N[C@@H](CCCNC(=N)N[C@@H](CC(=O)O)C(=O)O)C(=O)O
MSLEVEL=MS2
INSTRUMENT_TYPE=Orbitrap
SOURCE_INSTRUMENT=
IONMODE=Positive
COLLISION_ENERGY=
FORMULA=C20H34N6O8
EXACTMASS=486.24381
PEPMASS=487.25109
ADDUCT=M+H
RTINSECONDS=9.76
70.0653	35957904.0
88.0397	2156885.0
95.0860	1304432.4
97.0765	1111651.5
99.0558	1079282.1
109.1018	2048843.9
111.0559	1137539.4
112.0875	2148983.2
113.0714	10452736.0
115.0869	33942952.0
116.0711	7077768.5
133.0979	1332350.1
136.1128	2909416.5
152.0828	1067490.4
153.1395	1513398.8
154.1235	2359568.8
158.0569	5589133.0
158.0931	11510309.0
159.0773	2777347.0
164.0827	3627025.5
176.0677	1060640.1
179.1186	13819299.0
181.1346	3082214.2
182.0934	3751043.8
196.1450	31351104.0
197.1287	98397320.0
210.0881	15898441.0
212.1043	1146291.0
214.1559	11307504.0
215.1401	6855226.5
228.0990	6946845.0
255.1104	1310538.8
273.1209	6000559.5
274.1050	1442252.8
291.1317	1769677.2
293.1990	2489484.5
309.1940	1408979.5
311.2092	14176450.0
329.2203	1061249.0
337.1890	1746380.1
355.1994	10495479.0
371.2423	1185123.5
378.2158	1318046.8
424.2215	1930390.0
451.2324	1237639.9
469.2422	23259472.0
487.2141	1359594.5
487.2334	2613264.2
487.2512	78200576.0
END IONS

BEGIN IONS
NAME=HMDB0005765_486.25584_11.8
SMILES=CC[C@H](NC(=O)CC[C@H](NC(=O)CCCCC[C@@H]1NC(=O)N[C@@H]1C)C(=O)O)C(=O)NCC(=O)O
MSLEVEL=MS2
INSTRUMENT_TYPE=Orbitrap
SOURCE_INSTRUMENT=
IONMODE=Positive
COLLISION_ENERGY=
FORMULA=C21H35N5O8
EXACTMASS=485.24856
PEPMASS=486.25584
ADDUCT=M+H
RTINSECONDS=11.8
84.0443	516339.1
96.0807	374523.3
109.1010	305682.5
123.0915	617184.7
124.0756	4966923.5
130.0498	328217.4
136.1120	385370.4
141.1022	354086.0
142.0497	914900.9
142.0862	956390.9
152.0704	328101.6
154.1225	423887.9
161.0919	1837600.3
169.0970	3142235.8
170.0810	2181519.5
179.1177	3148018.0
183.0739	701645.6
184.0772	349683.7
187.1076	1192319.5
196.1443	293473.4
197.0920	1639613.1
197.1281	36821464.0
214.1547	20882258.0
215.1023	30511930.0
215.1388	1059894.8
216.0864	350651.5
227.1024	4406086.5
237.1596	722699.6
252.1705	718929.4
254.1862	419243.7
263.1389	502386.6
272.1241	989486.0
273.1078	359032.3
280.1654	3436524.0
290.1344	2854800.0
298.1759	4911010.5
308.1602	448972.2
326.1706	13462701.0
337.2231	936456.6
357.1093	206039.0
365.2177	9311963.0
366.2021	513685.4
383.2280	21824070.0
393.2127	7930170.0
411.2227	39031556.0
422.2391	220195.4
440.2502	218071.4
450.2340	274361.2
468.2449	3667167.8
486.2550	17445148.0
END IONS

BEGIN IONS
NAME=HMDB0002991_274.15837_14.29
SMILES=C[C@H]1NC(=O)N[C@H]1CCCCCC(=O)NCCS
MSLEVEL=MS2
INSTRUMENT_TYPE=Orbitrap
SOURCE_INSTRUMENT=
IONMODE=Positive
COLLISION_ENERGY=
FORMULA=C12H23N3O2S
EXACTMASS=273.1511
PEPMASS=274.15837
ADDUCT=M+H
RTINSECONDS=14.29
61.0106	480572.4
67.0542	485380.4
69.0698	444091.5
78.0371	292139.7
93.0698	329644.0
95.0854	781319.9
99.0552	488760.8
109.1011	995720.5
111.0552	416273.8
119.0854	272551.6
136.1120	1102100.4
137.0960	387005.8
151.1229	294165.0
153.1385	478131.8
154.1225	628311.4
179.1177	4436756.5
196.1442	4416739.0
197.1282	12528490.0
256.1474	8334036.5
274.1580	19495146.0
END IONS

BEGIN IONS
NAME=HMDB0000574_318.1482_13.19
SMILES=C[C@H]1NC(=O)N[C@H]1CCCCCC(=O)N[C@@H](CS)C(=O)O
MSLEVEL=MS2
INSTRUMENT_TYPE=Orbitrap
SOURCE_INSTRUMENT=
IONMODE=Positive
COLLISION_ENERGY=
FORMULA=C13H23N3O4S
EXACTMASS=317.14093
PEPMASS=318.1482
ADDUCT=M+H
RTINSECONDS=13.19
67.0542	13280921.0
69.0698	11887896.0
93.0698	6945169.0
95.0854	18871148.0
99.0552	17151950.0
109.1011	22250648.0
111.0552	11789491.0
119.0854	6694939.5
136.1119	29182466.0
137.0959	8994268.0
151.1228	8046532.0
154.1225	18261042.0
179.1177	151979328.0
196.1442	21088638.0
197.1282	600672960.0
215.1388	65618088.0
254.1319	32202458.0
272.1425	37250288.0
300.1374	213828624.0
318.1479	460361920.0
END IONS

BEGIN IONS
NAME=HMDB0250705_350.13803_14.29
SMILES=C[C@H]1NC(=O)N[C@H]1CCCCCC(=O)NC(CS(=O)O)C(=O)O
MSLEVEL=MS2
INSTRUMENT_TYPE=Orbitrap
SOURCE_INSTRUMENT=
IONMODE=Positive
COLLISION_ENERGY=
FORMULA=C13H23N3O6S
EXACTMASS=349.13076
PEPMASS=350.13803
ADDUCT=M+H
RTINSECONDS=14.29
95.0855	2570524.0
99.0552	3193106.8
109.1011	5272012.0
111.0552	1993406.0
136.1120	5323511.0
137.0960	1904257.4
153.1022	3048879.3
154.1226	4425343.5
167.1178	3640192.3
179.1178	33552290.0
196.1444	2907307.8
197.1282	181564240.0
215.1389	2860799.3
223.1440	3063686.5
240.1704	77715752.0
266.1496	133932848.0
270.1269	3470147.5
284.1605	1906166.6
332.1272	212419472.0
350.1378	6075426.5
END IONS

BEGIN IONS
NAME=HMDB0000149_258.18122_10.91
SMILES=C[C@H]1NC(=O)N[C@H]1CCCCCC(=O)NCCO
MSLEVEL=MS2
INSTRUMENT_TYPE=Orbitrap
SOURCE_INSTRUMENT=
IONMODE=Positive
COLLISION_ENERGY=
FORMULA=C12H23N3O3
EXACTMASS=257.17394
PEPMASS=258.18122
ADDUCT=M+H
RTINSECONDS=10.91
62.0601	140476608.0
67.0543	81317744.0
69.0700	60582984.0
81.0700	32019104.0
93.0700	38709572.0
95.0856	109149192.0
99.0554	67051196.0
109.1013	114111544.0
110.0966	28631022.0
111.0554	46873980.0
134.0966	29306574.0
136.1122	112179568.0
153.1388	33768540.0
154.1228	53886396.0
179.1180	341018144.0
180.1385	84512536.0
196.1447	81164600.0
197.1284	1035380224.0
240.1704	1694482688.0
258.1813	888496832.0
END IONS

BEGIN IONS
NAME=HMDB0001049_447.1908_11.6
SMILES=C[C@H]1NC(=O)N[C@H]1CCCCCC(=O)N[C@@H](CCC(=O)N[C@@H](CS)C(=O)O)C(=O)O
MSLEVEL=MS2
INSTRUMENT_TYPE=Orbitrap
SOURCE_INSTRUMENT=
IONMODE=Positive
COLLISION_ENERGY=
FORMULA=C18H30N4O7S
EXACTMASS=446.18352
PEPMASS=447.1908
ADDUCT=M+H
RTINSECONDS=11.6
84.0446	7236757.0
130.0502	6867287.0
136.1125	5121497.5
154.1231	4504383.5
179.1183	35248104.0
181.0613	3746769.0
194.1004	3713567.0
196.1451	13470758.0
197.1288	168161280.0
199.0719	6132701.0
213.1062	4222008.0
233.0597	9735178.0
254.1327	35206076.0
255.1169	3820427.3
272.1434	21546496.0
300.1379	162465696.0
318.1489	47238244.0
384.1599	5893311.0
429.1812	30062666.0
447.1913	88453072.0
END IONS

BEGIN IONS
NAME=HMDB0003337_809.28042_10.42
SMILES=C[C@H]1NC(=O)N[C@H]1CCCCCC(=O)N[C@@H](CCC(=O)N[C@@H](CSSC[C@H](NC(=O)CC[C@H](N)C(=O)O)C(=O)NCC(=O)O)C(=O)NCC(=O)O)C(=O)O
MSLEVEL=MS2
INSTRUMENT_TYPE=Orbitrap
SOURCE_INSTRUMENT=
IONMODE=Positive
COLLISION_ENERGY=
FORMULA=C30H48N8O14S2
EXACTMASS=808.27314
PEPMASS=809.28042
ADDUCT=M+H
RTINSECONDS=10.42
177.0326	4908996.5
179.1177	3139774.8
185.0377	2654591.5
197.1282	32954410.0
199.0710	7997750.0
214.1547	9556516.0
231.0430	17972444.0
235.0202	2592819.5
265.0307	3296416.5
288.0644	3190027.5
298.1757	2913943.3
326.1705	4898441.0
355.0735	3053476.3
395.1919	4961264.0
504.2115	2543252.8
605.2048	6919352.5
680.2366	26807946.0
734.2473	16605390.0
791.2687	8434368.0
809.2791	104571344.0
END IONS

BEGIN IONS
NAME=HMDB0029151_481.24052_9.2
SMILES=C[C@H]1NC(=O)N[C@H]1CCCCCC(=O)N[C@@H](CCC(=O)N[C@@H](Cc1c[nH]cn1)C(=O)O)C(=O)O
MSLEVEL=MS2
INSTRUMENT_TYPE=Orbitrap
SOURCE_INSTRUMENT=
IONMODE=Positive
COLLISION_ENERGY=
FORMULA=C21H32N6O7
EXACTMASS=480.23325
PEPMASS=481.24052
ADDUCT=M+H
RTINSECONDS=9.2
83.0605	205099.9
84.0445	52993.4
93.0449	148218.2
95.0605	369222.1
95.0856	25145.4
99.0554	27463.4
102.0551	33388.7
109.1013	48594.2
110.0713	4037870.0
111.0554	41908.8
112.0870	36226.6
129.0660	35117.4
130.0500	28790.5
133.0762	21778.0
136.1122	65321.1
148.0871	30498.2
150.1028	49215.0
154.1228	60907.0
156.0768	3822588.8
161.0711	47605.7
175.0980	37828.0
176.0820	778667.0
177.1136	33805.2
178.0976	866499.6
179.1180	400114.5
197.1285	3456804.0
214.1552	232721.5
215.1392	138492.4
221.1035	300430.6
222.0874	1195371.9
223.1192	202241.7
239.1143	24728.8
249.0985	69976.7
252.1710	83996.9
263.1393	40575.4
267.1090	548844.9
268.0932	28548.2
280.1659	258698.1
285.1197	38818.6
289.1663	49557.9
298.1764	445862.3
306.1933	22576.1
326.1714	452034.3
344.1820	217810.7
389.2301	36617.1
417.2250	235152.7
435.2351	1167905.0
445.2199	80058.6
463.2302	1129161.8
481.2395	14473721.0
END IONS

BEGIN IONS
NAME=HMDB0000303_357.2285_16.9
SMILES=C[C@H]1NC(=O)N[C@H]1CCCCCC(=O)NCCc1c[nH]c2ccccc12
MSLEVEL=MS2
INSTRUMENT_TYPE=Orbitrap
SOURCE_INSTRUMENT=
IONMODE=Positive
COLLISION_ENERGY=
FORMULA=C20H28N4O2
EXACTMASS=356.22123
PEPMASS=357.2285
ADDUCT=M+H
RTINSECONDS=16.9
67.0541	1142709.0
69.0698	1738136.3
70.0650	505134.3
79.0542	516311.1
81.0698	917207.1
91.0542	859628.8
93.0698	959018.1
95.0854	2821450.0
99.0552	2159536.3
109.1011	3724590.3
110.0962	483709.6
111.0552	1621805.8
113.0708	1448661.1
115.0541	1859325.1
117.0574	666823.5
117.0698	5002534.0
119.0854	1053382.6
125.0710	535282.8
126.1277	790141.8
127.0540	1071751.0
132.0807	721900.6
134.0963	516592.3
136.1119	4806329.0
137.0708	484953.9
137.0958	1118851.4
143.0728	3686795.8
144.0805	346398560.0
151.1228	1051360.9
152.1067	494386.7
153.1021	891307.7
154.1224	4195366.0
155.0601	1036459.6
161.1071	7807204.0
167.1176	725881.0
179.1176	24263198.0
196.1442	1219702.1
197.1281	105096296.0
198.1314	518202.3
214.1547	33351984.0
226.1548	1342489.5
240.1703	1609008.1
279.1851	558151.9
297.1957	955539.6
298.1911	628347.1
314.2219	632572.5
328.2016	1464372.1
339.2175	33227320.0
340.2016	1776351.9
356.7213	593176.9
357.2275	353381664.0
END IONS

BEGIN IONS
NAME=HMDB0000965_306.1482_12.65
SMILES=C[C@H]1NC(=O)N[C@H]1CCCCCC(=O)NCCS(=O)O
MSLEVEL=MS2
INSTRUMENT_TYPE=Orbitrap
SOURCE_INSTRUMENT=
IONMODE=Positive
COLLISION_ENERGY=
FORMULA=C12H23N3O4S
EXACTMASS=305.14093
PEPMASS=306.1482
ADDUCT=M+H
RTINSECONDS=12.65
95.0854	13424386.0
99.0552	13999552.0
109.1011	19018748.0
113.0708	72506480.0
134.0963	11668801.0
136.1119	27322038.0
153.1021	35423104.0
153.1384	30161408.0
154.1225	12872663.0
179.1177	186279872.0
196.1442	266399376.0
197.1283	382123712.0
208.1442	42943624.0
213.1054	92566480.0
225.1054	13981846.0
226.1548	45158940.0
242.1319	44438768.0
270.1268	555245312.0
288.1373	637904896.0
306.1479	26056910.0
END IONS

BEGIN IONS
NAME=HMDB0002005_362.17442_11.08
SMILES=C[C@H]1NC(=O)N[C@H]1CCCCCC(=O)N[C@@H](CCS(C)=O)C(=O)O
MSLEVEL=MS2
INSTRUMENT_TYPE=Orbitrap
SOURCE_INSTRUMENT=
IONMODE=Positive
COLLISION_ENERGY=
FORMULA=C15H27N3O5S
EXACTMASS=361.16714
PEPMASS=362.17442
ADDUCT=M+H
RTINSECONDS=11.08
84.0446	7236757.0
74.0236	59101836.0
75.0263	41091964.0
99.0552	15267825.0
109.1011	19477216.0
131.0160	20664406.0
136.1120	27325678.0
148.0426	67281304.0
149.0266	52737704.0
154.1225	23765748.0
166.0531	324796992.0
179.1177	183713088.0
196.1444	19117840.0
197.1282	1157017728.0
214.1549	22151660.0
215.1389	61444224.0
252.1704	262744080.0
280.1653	46338520.0
298.1758	376682400.0
344.1636	139797856.0
362.1740	1715992832.0
END IONS

BEGIN IONS
NAME=HMDB0001276_384.29692_8.96
SMILES=CC(=O)NCCCNCCCCNC(=O)CCCCC[C@@H]1NC(=O)N[C@@H]1C
MSLEVEL=MS2
INSTRUMENT_TYPE=Orbitrap
SOURCE_INSTRUMENT=
IONMODE=Positive
COLLISION_ENERGY=
FORMULA=C19H37N5O3
EXACTMASS=383.28964
PEPMASS=384.29692
ADDUCT=M+H
RTINSECONDS=8.96
72.0808	126420072.0
84.0808	20027774.0
99.0917	23946892.0
100.0756	2025783296.0
112.1121	30677838.0
153.1386	32507086.0
171.1491	54036864.0
179.1178	43559072.0
188.1756	14933335.0
196.1444	301583744.0
197.1284	178389792.0
208.1696	21652898.0
268.2019	146521936.0
285.2285	393024064.0
297.2284	30659728.0
325.2596	44612676.0
342.2862	36028572.0
366.2865	112990824.0
367.2704	154522688.0
384.2968	7551185920.0
END IONS

BEGIN IONS
NAME=HMDB0001186_441.35477_8.04
SMILES=CC(=O)NCCCNCCCCNCCCNC(=O)CCCCC[C@@H]1NC(=O)N[C@@H]1C
MSLEVEL=MS2
INSTRUMENT_TYPE=Orbitrap
SOURCE_INSTRUMENT=
IONMODE=Positive
COLLISION_ENERGY=
FORMULA=C22H44N6O3
EXACTMASS=440.34749
PEPMASS=441.35477
ADDUCT=M+H
RTINSECONDS=8.04
62.2469	1256121.0
67.5512	1230923.3
67.7920	1400826.3
72.4333	1391024.8
100.0755	60690456.0
100.3437	1362273.8
112.1118	3313161.5
171.1488	86200280.0
179.1176	1426503.3
181.1329	1340559.4
185.8393	1250824.8
194.1535	2707252.8
196.1440	6695013.5
197.1281	11864967.0
254.1857	61465956.0
271.2125	2006999.5
325.2591	75693752.0
362.5942	1284815.5
423.3433	7730600.0
441.3539	279813536.0
END IONS

BEGIN IONS
NAME=HMDB0003357_371.2289_11.56
SMILES=CC(=O)N[C@@H](CCCNC(=O)CCCCC[C@@H]1NC(=O)N[C@@H]1C)C(=O)O
MSLEVEL=MS2
INSTRUMENT_TYPE=Orbitrap
SOURCE_INSTRUMENT=
IONMODE=Positive
COLLISION_ENERGY=
FORMULA=C17H30N4O5
EXACTMASS=370.22162
PEPMASS=371.2289
ADDUCT=M+H
RTINSECONDS=11.56
69.0697	4116229.2
70.0649	165204576.0
95.0853	6116472.0
99.0551	5204184.5
109.1009	11437072.0
111.0550	4480717.0
112.0754	4694185.0
115.0863	67248056.0
116.0703	18428296.0
136.1118	15327931.0
137.0957	4594447.5
139.0863	10255891.0
142.2260	7341620.0
154.1223	13246026.0
157.0968	65288048.0
158.0808	27367358.0
175.1073	9940546.0
179.1175	88039536.0
196.1440	9132768.0
197.1162	4579039.5
197.1187	5512179.0
197.1220	14668788.0
197.1275	871244288.0
266.1666	5311817.5
266.1705	5212697.0
266.1770	17123896.0
266.1852	784889536.0
266.2044	4492919.5
311.2069	15116805.0
325.2227	23533904.0
329.2174	156683504.0
353.2173	194141056.0
371.1975	5861259.5
371.2026	5183785.5
371.2273	953993792.0
371.2588	6550997.0
END IONS

BEGIN IONS
NAME=HMDB0240689_357.24963_9.88
SMILES=CN[C@@H](CCCCNC(=O)CCCCC[C@@H]1NC(=O)N[C@@H]1C)C(=O)O
MSLEVEL=MS2
INSTRUMENT_TYPE=Orbitrap
SOURCE_INSTRUMENT=
IONMODE=Positive
COLLISION_ENERGY=
FORMULA=C17H32N4O4
EXACTMASS=356.24236
PEPMASS=357.24963
ADDUCT=M+H
RTINSECONDS=9.88
84.0806	36137600.0
98.0963	2218034.2
99.0552	341517.2
109.1010	339841.5
136.1120	601033.3
142.1733	758670.6
144.1017	1775215.2
154.1224	812478.7
179.1176	3727683.2
197.1162	356327.3
197.1281	44888304.0
197.1401	302862.5
280.1809	383344.9
280.2015	67737456.0
280.2181	334331.9
280.2209	344205.2
311.2436	4745486.0
357.2123	465103.6
357.2194	1149795.6
357.2255	532024.5
357.2491	165021600.0
357.2721	1161115.4
357.2782	1119849.2
357.2872	328504.3
END IONS

BEGIN IONS
NAME=HMDB0002189_384.29692_8.91
SMILES=CC(=O)NCCCCNCCCNC(=O)CCCCC[C@@H]1NC(=O)N[C@@H]1C
MSLEVEL=MS2
INSTRUMENT_TYPE=Orbitrap
SOURCE_INSTRUMENT=
IONMODE=Positive
COLLISION_ENERGY=
FORMULA=C19H37N5O3
EXACTMASS=383.28964
PEPMASS=384.29692
ADDUCT=M+H
RTINSECONDS=8.91
72.0807	27055138.0
113.0709	55187988.0
114.0913	153211168.0
153.1385	49982228.0
171.1490	34091868.0
179.1178	82081088.0
181.1334	37016412.0
188.1756	44227164.0
194.1539	147499760.0
196.1443	325884000.0
197.1284	575646720.0
211.1804	30133952.0
226.1548	33194636.0
236.1756	34673060.0
254.1861	1779173504.0
271.2128	32086800.0
325.2596	39024700.0
366.2864	60358088.0
367.2704	73635544.0
384.2967	6082156544.0
END IONS

BEGIN IONS
NAME=HMDB0000272_382.13738_13.63
SMILES=C[C@H]1NC(=O)N[C@H]1CCCCCC(=O)N[C@@H](COP(=O)(O)O)C(=O)O
MSLEVEL=MS2
INSTRUMENT_TYPE=Orbitrap
SOURCE_INSTRUMENT=
IONMODE=Positive
COLLISION_ENERGY=
FORMULA=C13H24N3O8P
EXACTMASS=381.1301
PEPMASS=382.13738
ADDUCT=M+H
RTINSECONDS=13.63
88.0392	502041.5
95.0854	604796.8
109.1011	833876.5
136.1119	940332.3
154.1225	1046301.3
167.1177	521550.4
169.1333	599052.6
178.1225	1582143.4
179.1177	7311047.0
186.1600	789574.6
197.1282	47151156.0
215.1388	1969073.6
221.1282	650225.2
238.1546	7254859.0
239.1388	857964.6
256.1652	7800909.5
266.1496	8324812.5
284.1600	68799360.0
382.1369	13685491.0
382.2808	3465328.3
END IONS

BEGIN IONS
NAME=HMDB0000158_378.20235_13.23
SMILES=C[C@H]1NC(=O)N[C@H]1CCCCCC(=O)N[C@@H](Cc1ccc(O)cc1)C(=O)O
MSLEVEL=MS2
INSTRUMENT_TYPE=Orbitrap
SOURCE_INSTRUMENT=
IONMODE=Positive
COLLISION_ENERGY=
FORMULA=C19H27N3O5
EXACTMASS=377.19507
PEPMASS=378.20235
ADDUCT=M+H
RTINSECONDS=13.23
91.0545	775377.4
95.0858	383935.1
99.0556	396829.0
109.1015	615034.4
111.0556	323524.7
119.0495	745561.3
136.0759	7942395.0
136.1123	747216.9
154.1230	601944.2
165.0550	1028828.1
179.1182	4027511.8
182.0816	2093125.8
196.1450	355821.4
197.1285	19891120.0
215.1394	2950135.5
314.1873	389832.7
315.1712	339928.6
332.1970	10383576.0
360.1928	725197.3
378.2024	5193775.0
END IONS

BEGIN IONS
NAME=HMDB0000187_302.17105_10.93
SMILES=C[C@H]1NC(=O)N[C@H]1CCCCCC(=O)N[C@@H](CO)C(=O)O
MSLEVEL=MS2
INSTRUMENT_TYPE=Orbitrap
SOURCE_INSTRUMENT=
IONMODE=Positive
COLLISION_ENERGY=
FORMULA=C13H23N3O5
EXACTMASS=301.16377
PEPMASS=302.17105
ADDUCT=M+H
RTINSECONDS=10.93
60.0444	38403152.0
67.0543	44642092.0
69.0699	41561392.0
93.0699	25443876.0
95.0856	60584524.0
99.0553	49840412.0
106.0499	49782784.0
109.1013	86508928.0
111.0554	40572624.0
136.1122	94662600.0
137.0961	26554960.0
154.1227	60148536.0
179.1179	390886848.0
197.1283	1803952768.0
215.1391	135002592.0
238.1551	73207520.0
256.1656	129181344.0
266.1500	152959344.0
284.1605	717470080.0
302.1711	662304896.0
END IONS

BEGIN IONS
NAME=HMDB0001257_342.28635_7.98
SMILES=C[C@H]1NC(=O)N[C@H]1CCCCCC(=O)NCCCCNCCCN
MSLEVEL=MS2
INSTRUMENT_TYPE=Orbitrap
SOURCE_INSTRUMENT=
IONMODE=Positive
COLLISION_ENERGY=
FORMULA=C17H35N5O2
EXACTMASS=341.27908
PEPMASS=342.28635
ADDUCT=M+H
RTINSECONDS=7.98
58.0651	47466460.0
70.0650	60813864.0
72.0807	164073424.0
84.0807	303643680.0
112.1119	193800448.0
113.0707	19057574.0
129.1385	42106008.0
136.1120	19767722.0
153.1384	44124844.0
179.1177	78111784.0
196.1442	348704256.0
197.1282	296105248.0
208.1692	26935548.0
211.1438	55739988.0
254.1859	64459672.0
268.2015	135709392.0
285.2281	162503264.0
297.2281	198713072.0
325.2593	513852192.0
342.2858	5415782912.0
END IONS

BEGIN IONS
NAME=HMDB0001256_399.3442_5.21
SMILES=C[C@H]1NC(=O)N[C@H]1CCCCCC(=O)NCCCNCCCCNCCCN
MSLEVEL=MS2
INSTRUMENT_TYPE=Orbitrap
SOURCE_INSTRUMENT=
IONMODE=Positive
COLLISION_ENERGY=
FORMULA=C20H42N6O2
EXACTMASS=398.33692
PEPMASS=399.3442
ADDUCT=M+H
RTINSECONDS=5.21
58.0651	3233737.8
72.0807	3122963.5
84.0807	15182236.0
112.1119	78694312.0
113.0708	2292429.8
129.1384	88952616.0
136.1117	1479231.4
142.2663	1657762.1
153.1385	1569424.0
179.1177	2924686.0
194.1536	7191794.0
196.1442	11438503.0
197.1281	23115702.0
211.1803	2027832.9
226.1547	1906591.8
236.1756	2740373.0
254.1859	86334496.0
271.2123	6266170.5
325.2593	75270360.0
399.3437	226250032.0
END IONS

BEGIN IONS
NAME=HMDB0034365_371.2289_12.12
SMILES=CCNC(=O)CC[C@H](NC(=O)CCCCC[C@@H]1NC(=O)N[C@@H]1C)C(=O)O
MSLEVEL=MS2
INSTRUMENT_TYPE=Orbitrap
SOURCE_INSTRUMENT=
IONMODE=Positive
COLLISION_ENERGY=
FORMULA=C17H30N4O5
EXACTMASS=370.22162
PEPMASS=371.2289
ADDUCT=M+H
RTINSECONDS=12.12
67.0544	199206.2
69.0701	220115.2
84.0446	2811059.0
95.0859	317781.7
99.0557	311429.8
109.1016	488054.6
111.0558	250336.5
111.0920	1162294.4
112.0757	15856494.0
112.0780	164882.2
112.0795	199978.1
112.0805	189455.4
129.1024	5312662.5
130.0504	477755.2
136.1126	585103.6
137.0967	192584.0
154.1233	438446.0
157.0974	2789907.5
158.0813	4739444.0
175.1077	8242446.0
179.1182	2602854.5
197.1283	12344742.0
197.1375	249452.5
214.1551	6655535.5
215.1400	175806.4
280.1668	303079.0
298.1774	387767.4
325.2249	408204.1
326.1723	1407881.6
353.2194	3001749.8
371.2292	10239463.0
END IONS

BEGIN IONS
NAME=HMDB0003431_338.21867_8.3
SMILES=C[C@H]1NC(=O)N[C@H]1CCCCCC(=O)N[C@H](CO)Cc1c[nH]cn1
MSLEVEL=MS2
INSTRUMENT_TYPE=Orbitrap
SOURCE_INSTRUMENT=
IONMODE=Positive
COLLISION_ENERGY=
FORMULA=C16H27N5O3
EXACTMASS=337.21139
PEPMASS=338.21867
ADDUCT=M+H
RTINSECONDS=8.3
53.0387	5914.6
54.0339	11866.0
56.0496	5399.9
67.0543	13325.3
68.0496	16335.8
69.0449	32325.0
69.0700	14600.9
70.0653	7556.8
81.0449	1784194.6
81.0701	10429.2
82.0527	8425.2
82.2564	7065.9
83.0606	72159.5
93.0700	10655.7
95.0605	599607.6
95.0857	26178.9
96.0446	5466.6
97.0763	24369.3
99.0555	31644.0
107.0605	1397123.9
109.1014	33037.8
110.0967	8657.9
111.0555	15875.9
112.1124	6331.1
119.0857	11594.9
124.0871	2027660.8
125.0663	7768.5
125.0711	2226383.3
126.1279	6399.1
134.0967	20981.3
136.1124	59459.9
137.0964	12481.1
142.0977	1202052.4
151.1233	15744.7
153.1025	5954.2
153.1389	60858.4
154.1230	28758.7
179.1183	201641.2
196.1448	286961.0
197.1287	512539.5
214.1554	88232.4
234.1608	10527.9
260.1763	141059.0
277.2029	77981.3
302.1982	12211.3
303.1820	7814.9
320.2079	5934898.0
321.1937	13340.4
338.2184	7982890.5
338.2470	6661.6
END IONS

BEGIN IONS
NAME=HMDB0250701_349.17264_9.4
SMILES=C[C@H]1NC(=O)N[C@H]1CCCCCC(=O)NCCSSCCN
MSLEVEL=MS2
INSTRUMENT_TYPE=Orbitrap
SOURCE_INSTRUMENT=
IONMODE=Positive
COLLISION_ENERGY=
FORMULA=C14H28N4O2S2
EXACTMASS=348.16537
PEPMASS=349.17264
ADDUCT=M+H
RTINSECONDS=9.4
67.0543	5979.9
69.0699	11094.3
70.0651	8121.0
76.0216	46396.3
77.0056	35727.9
81.0699	4089.0
93.0698	4840.8
95.0855	17292.1
99.0553	8683.9
107.9936	51300.2
109.1012	23778.0
111.0553	7581.6
113.0709	5283.3
124.1121	3964.0
126.1277	4374.5
134.0965	9237.3
135.0805	4380.1
136.0617	12605.2
136.1121	29097.1
137.0651	10625.2
137.0961	9167.1
151.1230	5507.6
152.1070	5027.9
153.0515	7234.5
153.1023	4944.8
153.1387	48530.2
154.1227	27547.1
167.1180	20494.7
169.1336	4810.9
179.1180	144092.9
193.1212	15804.8
194.1000	17024.8
196.1335	6810.1
196.1446	1304576.3
197.1284	924643.6
199.0900	8599.8
212.1105	17161.3
226.1010	6758.6
229.1370	5880.2
237.1057	5034.0
240.1707	21631.3
254.1322	110004.7
255.1163	18586.2
256.1479	35931.4
272.1244	5409.3
272.1427	941694.4
274.1583	130917.8
304.1149	6359.2
332.1465	14280.4
349.1726	1981982.1
END IONS

BEGIN IONS
NAME=HMDB0029419_386.20341_10.8
SMILES=C[C@H]1NC(=O)N[C@H]1CCCCCC(=O)NC/C(O)=N/C/C(O)=N/CC(=O)O
MSLEVEL=MS2
INSTRUMENT_TYPE=Orbitrap
SOURCE_INSTRUMENT=
IONMODE=Positive
COLLISION_ENERGY=
FORMULA=C16H27N5O6
EXACTMASS=385.19613
PEPMASS=386.20341
ADDUCT=M+H
RTINSECONDS=10.8
67.0541	170691.1
69.0698	188448.9
70.0650	285712.8
76.0392	1349358.5
87.0552	1751696.3
88.0392	173005.0
93.0698	266929.7
95.0854	456266.6
99.0552	632716.6
109.1010	913058.9
111.0552	692743.3
113.0708	26564656.0
115.0501	2139111.5
119.0854	323039.9
126.1275	218009.7
133.0606	2528835.0
134.0962	226078.9
136.1120	1348452.5
137.0959	477751.0
142.1723	233518.2
145.0605	203577.9
151.1228	295766.8
152.1068	292872.9
153.1019	388654.3
154.1225	1416632.6
169.1332	259379.6
172.0713	310924.4
179.1177	7393019.5
181.1332	843622.1
190.0821	814135.1
191.1176	210580.5
196.1443	441419.3
197.1282	69871944.0
208.1441	290503.5
209.1282	3225240.5
214.1547	191643.4
215.1389	544689.6
220.1442	246895.8
226.1547	39941400.0
238.1547	497495.4
254.1496	56953328.0
266.1496	1210949.8
283.1761	5865543.5
293.1606	588806.1
311.1710	21937372.0
329.1816	1648139.8
340.1977	2179640.8
350.1815	234363.7
368.1925	9169933.0
386.2031	69245656.0
END IONS

